# opt dreiding

3,3diMe-N-Me-azetidine-lp

0 1
 C                 -0.59646429   -0.58210714    0.10026786
 C                 -0.55146429    0.95389286   -0.14373214
 C                  0.92453571   -0.57410714   -0.22373214
 N                  0.86153571    0.82189286    0.20826786
 C                 -1.45746429   -1.36110714   -0.89473214
 C                 -0.90346429   -0.95410714    1.55726786
 C                  1.76453571    1.72889286   -0.46273214
 H                 -1.12346429    1.57889286    0.58026786
 H                 -0.70946429    1.23389286   -1.21273214
 H                  1.14353571   -0.68410714   -1.31273214
 H                  1.56653571   -1.20510714    0.43426786
 H                 -1.22946429   -1.08510714   -1.94873214
 H                 -1.28446429   -2.45610714   -0.78673214
 H                 -2.53846429   -1.15810714   -0.71873214
 H                 -1.97046429   -0.74410714    1.79526786
 H                 -0.71946429   -2.03910714    1.72826786
 H                 -0.27946429   -0.38910714    2.28626786
 H                  1.65453571    1.67989286   -1.57073214
 H                  1.56153571    2.77289286   -0.12973214
 H                  2.81653571    1.47389286   -0.19773214

 1 2 1.0 3 1.0 5 1.0 6 1.0
 2 4 1.0 8 1.0 9 1.0
 3 4 1.0 10 1.0 11 1.0
 4 7 1.0
 5 12 1.0 13 1.0 14 1.0
 6 15 1.0 16 1.0 17 1.0
 7 18 1.0 19 1.0 20 1.0
 8
 9
 10
 11
 12
 13
 14
 15
 16
 17
 18
 19
 20

