# opt dreiding

bicyclooctyl-CMe2Cl

0 1
 C                 -2.56454902   -0.75546078    0.00000000
 C                 -1.11754902   -1.28346078    0.00000000
 C                 -2.56254902    0.77953922    0.00000000
 C                 -0.07654902   -0.13446078    0.00000000
 C                 -1.82154902    1.27953922   -1.24600000
 C                 -0.38354902    0.73053922   -1.25200000
 C                 -1.82154902    1.27953922    1.24600000
 C                 -0.38354902    0.73053922    1.25200000
 C                  1.39945098   -0.67546078    0.00000000
 C                  1.74745098   -1.52846078   -1.24200000
 Cl                 2.58345098    0.70953922    0.00000000
 C                  1.74745098   -1.52846078    1.24200000
 H                 -3.11954902   -1.12846078    0.89400000
 H                 -3.11954902   -1.12846078   -0.89400000
 H                 -0.97854902   -1.93446078   -0.89300000
 H                 -0.97854902   -1.93446078    0.89300000
 H                 -3.61254902    1.16453922    0.00000000
 H                 -1.81654902    2.39553922   -1.25700000
 H                 -2.37054902    0.95853922   -2.16400000
 H                  0.32645098    1.58553922   -1.32400000
 H                 -0.24654902    0.12753922   -2.17900000
 H                 -2.37054902    0.95853922    2.16400000
 H                 -1.81654902    2.39553922    1.25700000
 H                 -0.24654902    0.12753922    2.17900000
 H                  0.32645098    1.58553922    1.32400000
 H                  2.80445098   -1.88246078   -1.21500000
 H                  1.12245098   -2.44546078   -1.30700000
 H                  1.63645098   -0.97146078   -2.19900000
 H                  2.80445098   -1.88246078    1.21500000
 H                  1.63645098   -0.97146078    2.19900000
 H                  1.12245098   -2.44546078    1.30700000

 1 2 1.0 3 1.0 13 1.0 14 1.0
 2 4 1.0 15 1.0 16 1.0
 3 5 1.0 7 1.0 17 1.0
 4 6 1.0 8 1.0 9 1.0
 5 6 1.0 18 1.0 19 1.0
 6 20 1.0 21 1.0
 7 8 1.0 22 1.0 23 1.0
 8 24 1.0 25 1.0
 9 10 1.0 11 1.0 12 1.0
 10 26 1.0 27 1.0 28 1.0
 11
 12 29 1.0 30 1.0 31 1.0
 13
 14
 15
 16
 17
 18
 19
 20
 21
 22
 23
 24
 25
 26
 27
 28
 29
 30
 31

