#p Opt=(Modredun,nomicro) dreiding

bicyclooctyl-CMe2Cl-ts

0 1
 C                 -2.58243137   -0.63940196   -0.11605882
 C                 -1.14243137   -1.13240196   -0.35405882
 C                 -2.56543137    0.85959804    0.20494118
 C                 -0.07143137   -0.09640196    0.08394118
 C                 -1.76843137    1.58659804   -0.88405882
 C                 -0.29243137    1.15459804   -0.81405882
 C                 -1.85343137    1.06459804    1.54594118
 C                 -0.48543137    0.35859804    1.51194118
 C                  1.41156863   -0.66240196    0.03894118
 C                  1.51356863   -2.09940196   -0.53205882
 Cl                 2.50456863    0.31459804   -1.05005882
 C                  2.13956863   -0.70140196    1.40394118
 H                 -3.05643137   -1.18840196    0.73294118
 H                 -3.21643137   -0.83940196   -1.01305882
 H                 -1.01443137   -1.35640196   -1.43905882
 H                 -1.02543137   -2.08840196    0.20494118
 H                 -3.60943137    1.25759804    0.25394118
 H                 -1.85743137    2.69259804   -0.76105882
 H                 -2.20943137    1.34359804   -1.88105882
 H                  0.31856863    2.00259804   -0.42405882
 H                  0.03456863    0.95059804   -1.86005882
 H                 -2.47743137    0.66959804    2.38394118
 H                 -1.73443137    2.15959804    1.73294118
 H                 -0.52543137   -0.53140196    2.18194118
 H                  0.25956863    1.06859804    1.93894118
 H                  2.56956863   -2.45040196   -0.60605882
 H                  1.00856863   -2.84440196    0.12294118
 H                  1.09156863   -2.18140196   -1.55905882
 H                  3.15956863   -1.14240196    1.32094118
 H                  2.28856863    0.31059804    1.84394118
 H                  1.59856863   -1.33640196    2.14094118

6 4 9 11 0.0 F 
 

