# opt dreiding

cyclohexane-sofa

0 1
 C                 -0.38268750   -0.35916667   -1.34147917
 C                 -1.12568750    0.79183333   -0.64047917
 C                 -0.59968750    1.05083333    0.78252083
 C                  0.09131250   -1.40116667   -0.32247917
 C                  0.89131250    0.70983333    0.88152083
 C                  1.12531250   -0.79216667    0.64052083
 H                  0.50931250    0.03183333   -1.88647917
 H                 -1.04368750   -0.82916667   -2.10947917
 H                 -2.21768750    0.56583333   -0.58347917
 H                 -0.78268750    2.11483333    1.06952083
 H                  0.52831250   -2.29016667   -0.83947917
 H                  1.44231250    1.31383333    0.12052083
 H                  2.15731250   -0.93316667    0.23752083
 H                  1.08431250   -1.34716667    1.60852083
 H                 -1.15468750    0.42183333    1.51952083
 H                 -1.02468750    1.71383333   -1.26147917
 H                  1.29931250    1.00483333    1.87852083
 H                 -0.79668750   -1.76716667    0.24552083

 1 2 1.0 4 1.0 7 1.0 8 1.0
 2 3 1.0 9 1.0 16 1.0
 3 5 1.0 10 1.0 15 1.0
 4 6 1.0 11 1.0 18 1.0
 5 6 1.0 12 1.0 17 1.0
 6 13 1.0 14 1.0
 7
 8
 9
 10
 11
 12
 13
 14
 15
 16
 17
 18

