# opt dreiding

dimethylphosphine-a

0 1
 P                 -0.47158824   -0.33355882   -0.03323529
 C                 -0.49058824    1.54944118    0.08076471
 C                  1.29741176   -0.97855882    0.08076471
 H                 -1.26158824   -0.89255882   -1.09523529
 H                 -1.53758824    1.92244118    0.13476471
 H                  0.05441176    1.88544118    0.99076471
 H                  0.00141176    1.99344118   -0.81323529
 H                  1.29941176   -2.09055882    0.13476471
 H                  1.88041176   -0.66355882   -0.81323529
 H                  1.79641176   -0.57655882    0.99076471

 1 2 1.0 3 1.0
 2 5 1.0 6 1.0 7 1.0
 3 8 1.0 9 1.0 10 1.0
 4
 5
 6
 7
 8
 9
 10

