#p Opt=(Modredun,nomicro) dreiding

ethanethiol-ecl

0 1
 C                 -0.13050000   -0.84044118   -0.28308824
 S                 -0.06150000    1.04555882   -0.52808824
 H                 -0.81050000    1.89255882    0.19991176
 H                 -1.17050000   -1.19544118   -0.47208824
 H                  0.53250000   -1.32744118   -1.03508824
 C                  0.31750000   -1.19244118    1.14491176
 H                  0.59350000   -0.30544118    1.75891176
 H                 -0.48850000   -1.72944118    1.69591176
 H                  1.20550000   -1.86644118    1.13091176

 3 2 1 6 0.0 F

