# opt dreiding

ethanol-ecl

0 1
 C                  0.27688462   -1.18369231   -0.34023077
 C                  0.32588462    0.34830769   -0.25523077
 O                 -0.65811538    0.81330769    0.64176923
 H                 -0.59511538    1.75230769    0.66676923
 H                  1.31588462    0.70930769    0.11376923
 H                  0.12688462    0.82130769   -1.24723077
 H                  1.24688462   -1.63669231   -0.03023077
 H                 -0.51411538   -1.61569231    0.31576923
 H                  0.06788462   -1.52469231   -1.38023077

 1 2 1.0 7 1.0 8 1.0 9 1.0
 2 3 1.0 5 1.0 6 1.0
 3 4 1.0
 4
 5
 6
 7
 8
 9

