# opt dreiding

methanol-ecl

0 1
 C                  0.03788889   -0.65855556   -0.06394444
 O                  0.01088889    0.75044444   -0.01994444
 H                 -0.44511111    1.00544444    0.76405556
 H                  1.09788889   -1.00355556   -0.06994444
 H                 -0.48711111   -1.04955556    0.83805556
 H                 -0.48011111   -1.00455556   -0.98894444

 1 2 1.0 4 1.0 5 1.0 6 1.0
 2 3 1.0
 3
 4
 5
 6

