# opt dreiding

methylformate O-CH3 ecl

0 1
 C                 -0.94175000   -0.07356250    0.00321875
 O                 -0.98975000    0.98143750   -0.58478125
 O                  0.17625000   -0.73056250    0.41221875
 C                  1.43925000   -0.14756250    0.14021875
 H                 -1.84675000   -0.66056250    0.29321875
 H                  2.03525000   -0.86056250   -0.47778125
 H                  1.36225000    0.82243750   -0.40178125
 H                  1.97225000    0.01843750    1.10621875

 1 2 2.0 3 1.0 5 1.0
 2
 3 4 1.0
 4 6 1.0 7 1.0 8 1.0
 5
 6
 7
 8

