# opt dreiding

N-methylpiperidine-ch-ax

0 1
 C                 -1.12533929   -0.98560714   -0.96776786
 C                 -1.12633929    0.54839286   -0.96776786
 C                 -0.38733929   -1.51060714    0.27023214
 C                  0.30566071    1.08339286   -0.81276786
 C                  1.01066071   -0.87960714    0.36723214
 N                  1.00766071    0.57839286    0.36123214
 C                  0.48166071    1.13439286    1.59823214
 H                 -0.61133929   -1.35460714   -1.88776786
 H                 -2.17033929   -1.37660714   -0.99476786
 H                 -1.77833929    0.92739286   -0.14576786
 H                 -1.57133929    0.92439286   -1.91976786
 H                 -0.29833929   -2.62260714    0.21223214
 H                 -0.98233929   -1.29160714    1.18723214
 H                  0.29766071    2.20039286   -0.79776786
 H                  0.88966071    0.80139286   -1.72176786
 H                  1.62066071   -1.23460714   -0.49776786
 H                  1.53666071   -1.25360714    1.27823214
 H                 -0.58133929    0.86139286    1.78023214
 H                  1.08366071    0.78139286    2.46723214
 H                  0.55766071    2.24639286    1.58723214

 1 2 1.0 3 1.0 8 1.0 9 1.0
 2 4 1.0 10 1.0 11 1.0
 3 5 1.0 12 1.0 13 1.0
 4 6 1.0 14 1.0 15 1.0
 5 6 1.0 16 1.0 17 1.0
 6 7 1.0
 7 18 1.0 19 1.0 20 1.0
 8
 9
 10
 11
 12
 13
 14
 15
 16
 17
 18
 19
 20

