# opt dreiding

N-me-piperidine ch-eq-nlp

0 1
 C                 -1.45096429   -0.97960714   -0.76503571
 C                 -1.44296429    0.55239286   -0.75503571
 C                 -0.70796429   -1.49360714    0.47396429
 C                 -0.00596429    1.08239286   -0.64603571
 C                  0.70403571   -0.89460714    0.54096429
 N                  0.67203571    0.55939286    0.52996429
 C                  1.99703571    1.13039286    0.68896429
 H                 -0.94596429   -1.35260714   -1.68703571
 H                 -2.49896429   -1.36460714   -0.77903571
 H                 -2.03996429    0.92239286    0.11296429
 H                 -1.92896429    0.94339286   -1.68103571
 H                 -0.65296429   -2.60860714    0.45296429
 H                 -1.27496429   -1.20860714    1.39296429
 H                 -0.04396429    2.19539286   -0.58403571
 H                  0.56503571    0.81439286   -1.56703571
 H                  1.31303571   -1.27060714   -0.31503571
 H                  1.19103571   -1.24460714    1.48196429
 H                  2.66403571    0.85939286   -0.16203571
 H                  1.93103571    2.24039286    0.75896429
 H                  2.45803571    0.77439286    1.63896429

 1 2 1.0 3 1.0 8 1.0 9 1.0
 2 4 1.0 10 1.0 11 1.0
 3 5 1.0 12 1.0 13 1.0
 4 6 1.0 14 1.0 15 1.0
 5 6 1.0 16 1.0 17 1.0
 6 7 1.0
 7 18 1.0 19 1.0 20 1.0
 8
 9
 10
 11
 12
 13
 14
 15
 16
 17
 18
 19
 20

