# opt dreiding

N-methylazetidine-lp

0 1
 N                  0.38790000    0.45602500    0.07380000
 C                 -0.84710000   -0.89597500    0.95180000
 C                 -1.07110000    0.39702500    0.12080000
 C                  0.53290000   -0.98797500    0.24580000
 H                 -1.54710000   -1.72897500    0.70480000
 H                 -0.76810000   -0.70497500    2.04980000
 H                 -1.52210000    1.25502500    0.67280000
 H                  0.48690000   -1.55297500   -0.71720000
 H                  1.39390000   -1.26197500    0.89880000
 C                  0.95690000    1.00702500   -1.13420000
 H                 -1.53710000    0.19402500   -0.87320000
 H                  0.57990000    0.48802500   -2.04520000
 H                  2.06690000    0.91002500   -1.10320000
 H                  0.70190000    2.08902500   -1.20920000

 1 3 1.0 4 1.0 10 1.0
 2 3 1.0 4 1.0 5 1.0 6 1.0
 3 7 1.0 11 1.0
 4 8 1.0 9 1.0
 5
 6
 7
 8
 9
 10 12 1.0 13 1.0 14 1.0
 11
 12
 13
 14

