$RunGaus
%mem=16000Mb
%nproc=8
# mp2/cc-pVTZ

2_propanethiol_a_single_point

0 1 
 c
 c   1 cc2     
 c    2 cc3         1 ccc3      
 s    2 sc4         3 scc4          1 dih4   
 h    4 hs5         2 hsc5          1 dih5   
 h    1 hc6         2 hcc6          4 dih6   
 h    1 hc7         2 hcc7          4 dih7   
 h    2 hc8         1 hcc8          6 dih8   
 h    3 hc9         2 hcc9          1 dih9   
 h    3 hc10        2 hcc10         1 dih10  
 h    3 hc11        2 hcc11         1 dih11  
 h    1 hc12        2 hcc12         4 dih12  
 
cc2         1.531125
cc3         1.531121
ccc3        112.497
sc4         1.857056
scc4        111.933
dih4       -127.057
hs5         1.350387
hsc5         96.493
dih5        -63.678
hc6         1.097249
hcc6        110.188
dih6       -174.943
hc7         1.093057
hcc7        111.411
dih7        -54.488
hc8         1.096532
hcc8        108.960
dih8        -62.940
hc9         1.093057
hcc9        111.411
dih9       -178.455
hc10        1.096323
hcc10       110.913
dih10        61.134
hc11        1.097250
hcc11       110.188
dih11       -58.000
hc12        1.096324
hcc12       110.913
dih12        65.924
 
 
 
 

