$RunGaus
%mem=16000Mb
%nproc=8
# mp2/cc-pVTZ

2_propanethiol_g_single_point

0 1 
 c
 c   1 cc2     
 c    2 cc3         1 ccc3      
 s    2 sc4         3 scc4          1 dih4   
 h    4 hs5         2 hsc5          1 dih5   
 h    1 hc6         2 hcc6          4 dih6   
 h    1 hc7         2 hcc7          4 dih7   
 h    2 hc8         1 hcc8          6 dih8   
 h    3 hc9         2 hcc9          1 dih9   
 h    3 hc10        2 hcc10         1 dih10  
 h    3 hc11        2 hcc11         1 dih11  
 h    1 hc12        2 hcc12         4 dih12  
 
cc2         1.529417
cc3         1.531372
ccc3        112.285
sc4         1.860138
scc4        107.243
dih4       -123.433
hs5         1.348972
hsc5         96.899
dih5         55.515
hc6         1.097568
hcc6        109.961
dih6       -179.956
hc7         1.094833
hcc7        111.718
dih7        -60.388
hc8         1.095189
hcc8        109.558
dih8        -61.746
hc9         1.094279
hcc9        111.624
dih9       -178.587
hc10        1.095695
hcc10       111.008
dih10        60.469
hc11        1.095753
hcc11       109.752
dih11       -58.828
hc12        1.094928
hcc12       110.880
dih12        60.220
 
 
 
 

