$RunGaus
%mem=16000Mb
%nproc=8
# mp2/cc-pVTZ

4_methylthiane_eqx_single_point

0 1 
 c
 c   1 cc2     
 c    2 cc3         1 ccc3      
 c    3 cc4         2 ccc4          1 dih4   
 s    4 sc5         3 scc5          2 dih5   
 c    5 cs6         4 csc6          3 dih6   
 c    2 cc7         3 ccc7          4 dih7   
 h    3 hc8         4 hcc8          5 dih8   
 h    3 hc9         4 hcc9          5 dih9   
 h    4 hc10        3 hcc10         2 dih10  
 h    4 hc11        3 hcc11         2 dih11  
 h    2 hc12        3 hcc12         4 dih12  
 h    6 hc13        5 hcs13         4 dih13  
 h    1 hc14        2 hcc14         3 dih14  
 h    6 hc15        5 hcs15         4 dih15  
 h    1 hc16        2 hcc16         3 dih16  
 h    7 hc17        2 hcc17         3 dih17  
 h    7 hc18        2 hcc18         3 dih18  
 h    7 hc19        2 hcc19         3 dih19  
 
cc2         1.541182
cc3         1.541183
ccc3        111.850
cc4         1.531649
ccc4        113.754
dih4        -58.940
sc5         1.836012
scc5        112.990
dih5         60.630
cs6         1.836014
csc6         97.689
dih6        -53.171
cc7         1.534407
ccc7        111.000
dih7        176.484
hc8         1.098253
hcc8        109.159
dih8        -61.724
hc9         1.099355
hcc9        108.439
dih9       -177.904
hc10        1.097150
hcc10       110.668
dih10       -61.832
hc11        1.094119
hcc11       110.955
dih11       178.979
hc12        1.102218
hcc12       107.472
dih12        58.793
hc13        1.097148
hcs13       108.932
dih13       -70.256
hc14        1.099357
hcc14       109.016
dih14      -179.917
hc15        1.094119
hcs15       105.576
dih15       174.609
hc16        1.098252
hcc16       109.298
dih16       -63.338
hc17        1.096025
hcc17       111.261
dih17      -177.591
hc18        1.096024
hcc18       111.262
dih18       -57.352
hc19        1.097152
hcc19       110.974
dih19        62.529
 
 
 
 

