$RunGaus
%mem=16000Mb
%nproc=8
# mp2/cc-pVTZ

s-methylthianium_ax_sp_single_point

1 1 
 c
 c   1 cc2     
 c    2 cc3         1 ccc3      
 c    3 cc4         2 ccc4          1 dih4   
 s    4 sc5         3 scc5          2 dih5   
 c    5 cs6         4 csc6          3 dih6   
 c    5 cs7         4 csc7          3 dih7   
 h    3 hc8         4 hcc8          5 dih8   
 h    3 hc9         4 hcc9          5 dih9   
 h    4 hc10        3 hcc10         2 dih10  
 h    4 hc11        3 hcc11         2 dih11  
 h    2 hc12        3 hcc12         4 dih12  
 h    2 hc13        3 hcc13         4 dih13  
 h    6 hc14        5 hcs14         4 dih14  
 h    1 hc15        2 hcc15         3 dih15  
 h    6 hc16        5 hcs16         4 dih16  
 h    1 hc17        2 hcc17         3 dih17  
 h    7 hc18        5 hcs18         4 dih18  
 h    7 hc19        5 hcs19         4 dih19  
 h    7 hc20        5 hcs20         4 dih20  
 
cc2         1.536323
cc3         1.536323
ccc3        113.073
cc4         1.529038
ccc4        113.668
dih4        -61.912
sc5         1.850648
scc5        114.621
dih5         55.258
cs6         1.850656
csc6        101.208
dih6        -43.422
cs7         1.823576
csc7        104.089
dih7         64.371
hc8         1.096415
hcc8        110.333
dih8        -69.443
hc9         1.096135
hcc9        106.173
dih9        176.249
hc10        1.095025
hcc10       112.121
dih10       -62.045
hc11        1.093754
hcc11       113.392
dih11       175.646
hc12        1.093842
hcc12       108.907
dih12       176.878
hc13        1.098197
hcc13       109.706
dih13        60.900
hc14        1.095025
hcs14       103.263
dih14       -78.828
hc15        1.096135
hcc15       109.945
dih15      -179.236
hc16        1.093754
hcs16       104.872
dih16       168.419
hc17        1.096414
hcc17       110.453
dih17       -62.726
hc18        1.089208
hcs18       111.812
dih18       -52.824
hc19        1.091778
hcs19       106.951
dih19        68.673
hc20        1.091776
hcs20       106.950
dih20      -174.321
 
 
 
 

