$RunGaus
%mem=16000Mb
%nproc=8
# mp2/cc-pVTZ

sulfolane_halfchair_single_point

0 1 
 c
 c   1 cc2     
 s    2 sc3         1 scc3      
 c    3 cs4         2 csc4          1 dih4   
 c    4 cc5         3 ccs5          2 dih5   
 o    3 os6         2 osc6          1 dih6   
 o    3 os7         2 osc7          1 dih7   
 h    2 hc8         3 hcs8          6 dih8   
 h    2 hc9         3 hcs9          6 dih9   
 h    4 hc10        3 hcs10         2 dih10  
 h    4 hc11        3 hcs11         2 dih11  
 h    5 hc12        4 hcc12         3 dih12  
 h    5 hc13        4 hcc13         3 dih13  
 h    1 hc14        2 hcc14         3 dih14  
 h    1 hc15        2 hcc15         3 dih15  
 
cc2         1.532831
sc3         1.843920
scc3        105.154
cs4         1.843900
csc4         95.514
dih4        -13.298
cc5         1.532823
ccs5        105.151
dih5        -13.322
os6         1.476555
osc6        109.328
dih6       -126.466
os7         1.476553
osc7        109.743
dih7         99.528
hc8         1.091091
hcs8        107.304
dih8        110.804
hc9         1.092695
hcs9        106.078
dih9         -7.027
hc10        1.091092
hcs10       107.305
dih10      -136.052
hc11        1.092697
hcs11       106.079
dih11       106.116
hc12        1.096091
hcc12       109.975
dih12       -82.908
hc13        1.094126
hcc13       110.847
dih13       158.390
hc14        1.094128
hcc14       110.847
dih14       158.374
hc15        1.096091
hcc15       109.975
dih15       -82.925
 
 
 
 

