$RunGaus
%mem=16000Mb
%nproc=8
# mp2/cc-pVTZ

thiacyclohexane_ch_single_point

0 1 
 c
 c   1 cc2     
 c    2 cc3         1 ccc3      
 c    3 cc4         2 ccc4          1 dih4   
 s    4 sc5         3 scc5          2 dih5   
 c    5 cs6         4 csc6          3 dih6   
 h    3 hc7         4 hcc7          5 dih7   
 h    3 hc8         4 hcc8          5 dih8   
 h    4 hc9         3 hcc9          2 dih9   
 h    4 hc10        3 hcc10         2 dih10  
 h    2 hc11        3 hcc11         4 dih11  
 h    2 hc12        3 hcc12         4 dih12  
 h    6 hc13        5 hcs13         4 dih13  
 h    1 hc14        2 hcc14         3 dih14  
 h    1 hc15        2 hcc15         3 dih15  
 h    6 hc16        5 hcs16         4 dih16  
 
cc2         1.537976
cc3         1.537971
ccc3        113.374
cc4         1.532070
ccc4        112.942
dih4        -59.054
sc5         1.837419
scc5        112.913
dih5         60.127
cs6         1.837421
csc6         97.918
dih6        -53.552
hc7         1.097389
hcc7        109.054
dih7        -62.027
hc8         1.098653
hcc8        108.592
dih8       -178.334
hc9         1.097256
hcc9        110.603
dih9        -62.169
hc10        1.094080
hcc10       111.140
dih10       178.491
hc11        1.096737
hcc11       109.359
dih11       178.629
hc12        1.100188
hcc12       109.089
dih12        62.719
hc13        1.097254
hcs13       108.884
dih13       -69.704
hc14        1.098652
hcc14       109.407
dih14      -179.871
hc15        1.097387
hcc15       109.633
dih15       -62.776
hc16        1.094080
hcs16       105.529
dih16       175.138
 
 
 
 

