$RunGaus
%mem=16000Mb
%nproc=8
# opt  b3lyp/6-31+g(d,p)   

2-(1-Ad)-N-Me-pip-trans

0 1
 C                 -2.46378462    0.63750769   -1.25094615
 C                 -2.22278462    2.14950769   -1.34594615
 C                 -0.70978462    2.38750769   -1.43094615
 C                 -1.76678462    0.09050769    0.00505385
 C                 -0.01378462    1.79050769   -0.19494615
 C                 -0.22378462    0.25350769   -0.05994615
 C                 -1.90178462   -0.06549231   -2.49794615
 C                  0.32621538   -0.36149231   -1.36794615
 C                 -0.39278462    0.20650769   -2.60494615
 C                 -0.15078462    1.72050769   -2.69794615
 C                  0.48521538   -0.34649231    1.21705385
 C                  1.80821538    0.40350769    1.52205385
 C                  2.53421538   -0.08349231    2.77905385
 C                  2.77521538   -1.58249231    2.64205385
 N                  0.73521538   -1.80349231    1.20505385
 C                  1.42521538   -2.26549231    2.41105385
 H                 -3.56478462    0.44950769   -1.18394615
 H                 -2.64678462    2.66850769   -0.45394615
 H                 -2.73578462    2.57250769   -2.24194615
 H                 -0.51578462    3.48850769   -1.47894615
 H                 -2.08778462   -0.96449231    0.10905385
 H                 -2.16578462    0.60850769    0.90905385
 H                 -0.38078462    2.31050769    0.72205385
 H                  1.06521538    2.04050769   -0.31294615
 H                 -2.42378462    0.30250769   -3.41194615
 H                 -2.09178462   -1.16449231   -2.43794615
 H                  0.21321538   -1.46649231   -1.38494615
 H                  1.42121538   -0.16849231   -1.44894615
 H                  0.00821538   -0.28549231   -3.52594615
 H                 -0.64578462    2.13850769   -3.60694615
 H                  0.94021538    1.93150769   -2.79994615
 H                 -0.18178462   -0.12349231    2.08405385
 H                  1.62721538    1.48850769    1.70405385
 H                  2.49621538    0.30650769    0.64905385
 H                  1.91521538    0.12350769    3.68505385
 H                  3.50521538    0.45350769    2.90805385
 H                  3.26421538   -1.98049231    3.56405385
 H                  3.45921538   -1.78849231    1.78405385
 H                  1.63421538   -3.35949231    2.33605385
 H                  0.77321538   -2.11549231    3.30605385
 C                 -0.45778462   -2.63049231    1.05505385
 H                 -0.87278462   -2.58649231    0.02805385
 H                 -0.22078462   -3.71249231    1.17705385
 H                 -1.23778462   -2.36749231    1.80805385

 
