$RunGaus
%mem=16000Mb
%nproc=8
# opt  b3lyp/6-31+g(d,p)   

3,3-dime-N-me-pyrrol-lp

0 1
 C                  0.95262500   -0.20248437    0.32578125
 C                  0.14362500   -1.44948437   -0.10221875
 C                 -1.20137500   -0.89148437   -0.60521875
 C                  0.11362500    0.95051562   -0.26021875
 N                 -1.24937500    0.47551562   -0.11821875
 C                 -2.23137500    1.30151562   -0.79221875
 H                 -0.00237500   -2.15348437    0.74978125
 H                  0.65462500   -2.01548437   -0.91621875
 C                  2.38562500   -0.20448437   -0.22721875
 C                  0.99462500   -0.09648437    1.86378125
 H                 -2.07537500   -1.47748437   -0.23321875
 H                 -1.21637500   -0.90648438   -1.72221875
 H                  0.35962500    1.10151562   -1.33921875
 H                  0.27062500    1.91451562    0.27778125
 H                 -2.02837500    1.37551563   -1.88521875
 H                 -3.25137500    0.87551563   -0.64721875
 H                 -2.22637500    2.32851563   -0.36021875
 H                  2.39662500   -0.28148438   -1.33921875
 H                  2.96762500   -1.06548438    0.17478125
 H                  2.92062500    0.73351563    0.04878125
 H                  1.54862500   -0.95348438    2.30978125
 H                 -0.02637500   -0.08648438    2.30678125
 H                  1.50962500    0.83651562    2.18778125

 
