$RunGaus
%mem=16000Mb
%nproc=8
# opt  b3lyp/6-31+g(d,p)   

3,3-dime-N-me-pyrrol-NI

0 1
 C                  0.95929687   -0.19395312    0.30446875
 C                  0.18929687   -1.43195312   -0.20253125
 C                 -1.26670313   -0.94895313   -0.30153125
 C                  0.21029687    0.95404687   -0.40153125
 N                 -1.13670313    0.46704688   -0.50053125
 C                 -2.25170313    1.32704688   -0.77153125
 H                  0.30929687   -2.32195313    0.45846875
 H                  0.55129687   -1.70595312   -1.22153125
 C                  2.44829688   -0.23295312   -0.07053125
 C                  0.81829687   -0.06695312    1.83446875
 H                 -1.82470313   -1.12995312    0.64746875
 H                 -1.80970312   -1.42595312   -1.15053125
 H                  0.59429687    1.12004688   -1.43453125
 H                  0.25729687    1.91004688    0.16946875
 H                 -1.98770312    2.04904687   -1.57653125
 H                 -3.13470313    0.73404687   -1.10153125
 H                 -2.51770313    1.88704688    0.15346875
 H                  2.59329688   -0.32595312   -1.17153125
 H                  2.95629688   -1.09995312    0.40946875
 H                  2.96629687    0.69804687    0.25746875
 H                  1.27629687   -0.93995312    2.35246875
 H                 -0.24570313   -0.00495312    2.15546875
 H                  1.33029687    0.84904687    2.20846875

 
