$RunGaus
%mem=16000Mb
%nproc=8
# opt  b3lyp/6-31+g(d,p)   

bicyclooctyl-CMe2Cl

0 1
 C                 -2.56454902   -0.75546078    0.00000000
 C                 -1.11754902   -1.28346078    0.00000000
 C                 -2.56254902    0.77953922    0.00000000
 C                 -0.07654902   -0.13446078    0.00000000
 C                 -1.82154902    1.27953922   -1.24600000
 C                 -0.38354902    0.73053922   -1.25200000
 C                 -1.82154902    1.27953922    1.24600000
 C                 -0.38354902    0.73053922    1.25200000
 C                  1.39945098   -0.67546078    0.00000000
 C                  1.74745098   -1.52846078   -1.24200000
 Cl                 2.58345098    0.70953922    0.00000000
 C                  1.74745098   -1.52846078    1.24200000
 H                 -3.11954902   -1.12846078    0.89400000
 H                 -3.11954902   -1.12846078   -0.89400000
 H                 -0.97854902   -1.93446078   -0.89300000
 H                 -0.97854902   -1.93446078    0.89300000
 H                 -3.61254902    1.16453922    0.00000000
 H                 -1.81654902    2.39553922   -1.25700000
 H                 -2.37054902    0.95853922   -2.16400000
 H                  0.32645098    1.58553922   -1.32400000
 H                 -0.24654902    0.12753922   -2.17900000
 H                 -2.37054902    0.95853922    2.16400000
 H                 -1.81654902    2.39553922    1.25700000
 H                 -0.24654902    0.12753922    2.17900000
 H                  0.32645098    1.58553922    1.32400000
 H                  2.80445098   -1.88246078   -1.21500000
 H                  1.12245098   -2.44546078   -1.30700000
 H                  1.63645098   -0.97146078   -2.19900000
 H                  2.80445098   -1.88246078    1.21500000
 H                  1.63645098   -0.97146078    2.19900000
 H                  1.12245098   -2.44546078    1.30700000

