$RunGaus
%mem=16000Mb
%nproc=8
# opt  b3lyp/6-31+g(d,p)   

butane-ecl

0 1
 C                  1.12397059   -1.13029412   -0.00491176
 C                  0.97997059    0.39670588   -0.03891176
 C                 -0.46002941    0.95270588   -0.00991176
 C                 -1.59102941   -0.08229412    0.04908824
 H                  2.19797059   -1.42629412   -0.02991176
 H                  0.68897059   -1.56329412    0.92408824
 H                  0.63597059   -1.60829412   -0.88491176
 H                  1.55097059    0.81570588    0.82408824
 H                  1.49897059    0.77170588   -0.95391176
 H                 -0.57102941    1.63570588    0.86608824
 H                 -0.62302941    1.59170588   -0.91191176
 H                 -2.58602941    0.42070588    0.06608824
 H                 -1.58202941   -0.75129412   -0.84091176
 H                 -1.52802941   -0.70729412    0.96908824


