$RunGaus
%mem=16000Mb
%nproc=8
# opt  b3lyp/6-31+g(d,p)   

dimethylsulfide-ecl

0 1
 C                  0.63370588   -1.37761765    0.37547059
 S                  0.35470588    0.23738235   -0.34952941
 C                 -1.17729412    1.01438235    0.15947059
 H                  1.57670588   -1.36561765    0.96747059
 H                 -0.21329412   -1.64661765    1.04547059
 H                  0.71870588   -2.14161765   -0.42952941
 H                 -1.18129412    1.15138235    1.26447059
 H                 -1.27529412    2.00838235   -0.33152941
 H                 -2.03929412    0.37538235   -0.13352941

