$RunGaus
%mem=16000Mb
%nproc=8
# opt  b3lyp/6-31+g(d,p)   

dimethylsulfide-g

0 1
 C                  0.63170588   -1.37661765    0.37579412
 S                  0.35570588    0.23738235   -0.35120588
 C                 -1.17629412    1.01338235    0.16179412
 H                  1.59770588   -1.79261765    0.01179412
 H                  0.66570588   -1.28861765    1.48479412
 H                 -0.19429412   -2.06461765    0.08879412
 H                 -1.17829412    1.14738235    1.26679412
 H                 -1.27629412    2.00738235   -0.32820588
 H                 -2.03829412    0.37238235   -0.13020588

 
