$RunGaus
%mem=16000Mb
%nproc=8
# opt  b3lyp/6-31+g(d,p)   

diMe-sulfone-ts

0 1
 C                  1.53260000   -0.63760000    0.23120000
 S                 -0.14940000   -0.09860000   -0.02680000
 C                 -0.04940000    1.68140000    0.05420000
 O                 -0.54340000   -0.49260000   -1.36480000
 O                 -0.96240000   -0.58460000    1.07020000
 H                  1.89060000   -0.29460000    1.22820000
 H                  2.18960000   -0.21460000   -0.56380000
 H                 -0.78540000    2.06140000    0.79820000
 H                  0.97060000    2.00840000    0.35820000
 H                 -0.30340000    2.12040000   -0.93680000
 H                  1.57560000   -1.74860000    0.18920000

