$RunGaus
%mem=16000Mb
%nproc=8
# opt  b3lyp/6-31+g(d,p)   

ethylbenzene-eth-rot

0 1
 C                 -0.49331034   -1.11834483   -0.23401724
 C                 -0.44131034    0.19565517    0.24698276
 C                  0.80068966    0.72365517    0.61598276
 C                  0.66568966   -1.88934483   -0.33901724
 C                  1.89768966   -1.35134483    0.03598276
 C                  1.96368966   -0.04234483    0.51298276
 C                 -1.69831034    1.02865517    0.35698276
 C                 -1.95031034    1.80965517   -0.93801724
 H                 -1.45931034   -1.55334483   -0.53901724
 H                  0.86768966    1.75865517    0.98898276
 H                  0.60868966   -2.92234483   -0.72101724
 H                  2.81568966   -1.95834483   -0.04801724
 H                  2.93568966    0.38865517    0.80698276
 H                 -2.57231034    0.37065517    0.57898276
 H                 -1.61131034    1.73465517    1.21598276
 H                 -2.87631034    2.42465517   -0.86101724
 H                 -1.10331034    2.49865517   -1.16301724
 H                 -2.07231034    1.12065517   -1.80601724

 
