$RunGaus
%mem=16000Mb
%nproc=8
# opt  b3lyp/6-31+g(d,p)   

methanol-g

0 1
 C                 -0.01433333   -0.66116667    0.02422222
 O                 -0.03733333    0.74583333    0.06522222
 H                  0.40666667    1.05583333   -0.70477778
 H                  1.04766667   -1.00116667    0.01122222
 H                 -0.53633333   -1.05316667    0.92822222
 H                 -0.53333333   -1.00116667   -0.90177778

 
