$RunGaus
%mem=16000Mb
%nproc=8
# opt  b3lyp/6-31+g(d,p)   

methylformate O=C-O ecl

0 1
 C                 -0.73718750    0.28709375   -0.00296875
 O                 -1.65318750   -0.27590625   -0.55796875
 O                  0.35881250   -0.31790625    0.52903125
 C                  1.60681250    0.14509375    0.05303125
 H                 -0.68118750    1.39509375    0.13203125
 H                  1.60881250    0.14409375   -1.06296875
 H                  1.81281250    1.17009375    0.44403125
 H                  2.39681250   -0.55190625    0.41803125

 
