$RunGaus
%mem=16000Mb
%nproc=8
# opt  b3lyp/6-31+g(d,p)   

N-methylazetidine-NI

0 1
 N                  0.29347500    0.30115000    0.03195000
 C                 -1.07652500   -1.10185000   -0.10105000
 C                 -1.10852500    0.45315000   -0.22905000
 C                  0.46347500   -1.11685000    0.15795000
 H                 -1.36152500   -1.61985000   -1.04705000
 H                 -1.66452500   -1.47585000    0.77195000
 H                 -1.62652500    0.98715000    0.60095000
 H                  1.08047500   -1.52985000   -0.67305000
 H                  0.76847500   -1.40485000    1.18995000
 C                  1.28747500    1.32015000    0.12795000
 H                 -1.29352500    0.84215000   -1.25705000
 H                  2.09447500    0.99915000    0.82395000
 H                  0.83147500    2.26015000    0.51195000
 H                  1.72147500    1.50615000   -0.88005000

