$RunGaus
%mem=16000Mb
%nproc=8
# opt  b3lyp/6-31+g(d,p)   

N-me-spiro[pip2,2'adam]ch

0 1
 C                 -2.25343443   -1.04477869   -0.91965574
 C                 -2.08743443    0.45922131   -0.66265574
 C                 -0.58943443    0.82422131   -0.64065574
 C                  0.20956557    0.09322131    0.48734426
 C                 -0.02243443   -1.42377869    0.18834426
 C                 -1.51243443   -1.82377869    0.17634426
 C                  0.56256557   -1.80777869   -1.18865574
 C                 -0.16243443   -1.02477869   -2.29465574
 C                 -0.00743443    0.48122131   -2.02865574
 C                 -1.65343443   -1.39577869   -2.29065574
 C                 -0.32043443    0.43622131    1.91234426
 C                 -0.07843443    1.92122131    2.22734426
 C                  1.42256557    2.21422131    2.13134426
 C                  1.90056557    1.84922131    0.71734426
 N                  1.65256557    0.43522131    0.42734426
 C                  2.53356557   -0.41077869    1.22934426
 H                 -3.33943443   -1.31377869   -0.90865574
 H                 -2.59343443    0.75322131    0.28534426
 H                 -2.61043443    1.03322131   -1.46365574
 H                 -0.54143443    1.93022131   -0.52265574
 H                  0.45856557   -2.04577869    0.98034426
 H                 -1.99243443   -1.65477869    1.16634426
 H                 -1.61343443   -2.91877869   -0.01365574
 H                  0.45156557   -2.90377869   -1.36365574
 H                  1.65556557   -1.60177869   -1.24565574
 H                  0.28056557   -1.27877869   -3.28965574
 H                 -0.53643443    1.06022131   -2.82365574
 H                  1.06456557    0.77822131   -2.10065574
 H                 -2.19143443   -0.84777869   -3.10065574
 H                 -1.78143443   -2.48477869   -2.50065574
 H                  0.15756557   -0.20377869    2.68934426
 H                 -1.40943443    0.24422131    2.01734426
 H                 -0.43043443    2.14422131    3.26334426
 H                 -0.66243443    2.58922131    1.55234426
 H                  1.98956557    1.67122131    2.92234426
 H                  1.59956557    3.30122131    2.31334426
 H                  2.98956557    2.07222131    0.62034426
 H                  1.42156557    2.50622131   -0.04365574
 H                  2.55756557   -1.45677869    0.85534426
 H                  3.58956557   -0.06477869    1.14734426
 H                  2.26956557   -0.43877869    2.30734426

