%mem=1000MB
%nprocshared=1
# b3lyp/6-31+g(d,p)

N-Me-Acetamide-E

0 1
 C                  0.80707600    1.32664400   -0.00000300
 C                  0.59703600   -0.17783100    0.00001700
 N                 -0.68743400   -0.68276100   -0.00002000
 C                 -1.86997100    0.14284700    0.00001000
 O                  1.54125800   -0.93090200    0.00000000
 H                  1.89324100    1.57421900    0.00023000
 H                  0.35756300    1.78604300   -0.90929600
 H                  0.35715000    1.78613700    0.90903600
 H                 -0.75078600   -1.70376100    0.00000400
 H                 -1.90896800    0.77766900    0.91400600
 H                 -1.90861300    0.77831700   -0.91356600
 H                 -2.76246000   -0.52204100   -0.00041900

