$RunGaus
%mem=16000Mb
%nproc=8
# opt  b3lyp/6-31+g(d,p)   

propene-ecl

0 1
 C                 -0.14566667   -1.22820833    0.07537500
 C                 -0.26866667    0.24979167    0.33237500
 C                  0.40033333    1.16979167   -0.37662500
 H                  0.90833333   -1.56120833    0.21237500
 H                 -0.78566667   -1.81220833    0.77637500
 H                 -0.46466667   -1.47020833   -0.96362500
 H                 -0.94266667    0.57579167    1.14437500
 H                  0.28933333    2.24579167   -0.16462500
 H                  1.07933333    0.87379167   -1.19162500

 
