# opt dreiding

2-(1-Ad)-N-Me-piperidine-eq,eq

0 1
 C                 -2.73534615   -1.45426923   -1.33300000
 C                 -2.51334615    0.06273077   -1.39100000
 C                 -1.71634615    0.52373077   -0.15700000
 C                 -1.36234615   -2.13626923   -1.27300000
 C                 -0.61234615   -1.65926923   -0.01800000
 C                 -0.30934615   -0.13726923   -0.05800000
 C                 -1.73034615    0.42273077   -2.66300000
 C                 -0.35534615   -0.26126923   -2.60500000
 C                  0.42065385    0.23173077   -1.37100000
 C                 -0.54334615   -1.78526923   -2.52600000
 C                  0.49465385    0.33573077    1.21700000
 C                  0.17765385    1.81573077    1.55600000
 C                  0.87865385    2.33773077    2.81300000
 C                  2.37965385    2.12373077    2.64900000
 C                  2.62465385    0.63673077    2.38300000
 N                  1.95965385    0.14073077    1.17700000
 C                  2.39065385   -1.24126923    0.99300000
 H                 -3.30534615   -1.80126923   -2.22700000
 H                 -3.34234615   -1.72226923   -0.43600000
 H                 -3.50634615    0.57573077   -1.41300000
 H                 -2.30634615    0.30973077    0.76500000
 H                 -1.63434615    1.63073077   -0.25400000
 H                 -1.50934615   -3.24426923   -1.22500000
 H                  0.29965385   -2.28226923    0.05800000
 H                 -1.21134615   -1.90426923    0.89000000
 H                 -1.60734615    1.52873077   -2.74500000
 H                 -2.29034615    0.09273077   -3.57000000
 H                  0.21865385   -0.00626923   -3.53100000
 H                  0.56165385    1.33573077   -1.43200000
 H                  1.44165385   -0.20426923   -1.41200000
 H                 -1.06534615   -2.15526923   -3.44000000
 H                  0.44965385   -2.29326923   -2.49200000
 H                  0.09565385   -0.25226923    2.07800000
 H                 -0.90834615    1.96273077    1.75800000
 H                  0.46165385    2.46073077    0.69100000
 H                  0.51165385    1.79073077    3.71400000
 H                  0.65765385    3.42173077    2.96800000
 H                  2.91865385    2.45373077    3.56900000
 H                  2.76565385    2.73373077    1.79600000
 H                  2.30165385    0.04173077    3.27100000
 H                  3.73065385    0.51273077    2.28900000
 H                  1.91965385   -1.92226923    1.74000000
 H                  2.20865385   -1.60326923   -0.04000000
 H                  3.49565385   -1.33926923    1.09500000

 1 2 1.0 4 1.0 18 1.0 19 1.0
 2 3 1.0 7 1.0 20 1.0
 3 6 1.0 21 1.0 22 1.0
 4 5 1.0 10 1.0 23 1.0
 5 6 1.0 24 1.0 25 1.0
 6 9 1.0 11 1.0
 7 8 1.0 26 1.0 27 1.0
 8 9 1.0 10 1.0 28 1.0
 9 29 1.0 30 1.0
 10 31 1.0 32 1.0
 11 12 1.0 16 1.0 33 1.0
 12 13 1.0 34 1.0 35 1.0
 13 14 1.0 36 1.0 37 1.0
 14 15 1.0 38 1.0 39 1.0
 15 16 1.0 40 1.0 41 1.0
 16 17 1.0
 17 42 1.0 43 1.0 44 1.0
 18
 19
 20
 21
 22
 23
 24
 25
 26
 27
 28
 29
 30
 31
 32
 33
 34
 35
 36
 37
 38
 39
 40
 41
 42
 43
 44

