# opt dreiding

2-(1-Ad)-N-Me-piperidine-eq,ax

0 1
 C                 -2.46090000   -1.97651538   -1.12046154
 C                 -2.66490000   -0.45451538   -1.09646154
 C                 -1.85090000    0.15748462    0.05653846
 C                 -0.96590000   -2.27251538   -1.30646154
 C                 -0.17190000   -1.65951538   -0.14046154
 C                 -0.32690000   -0.12051538   -0.09246154
 C                 -2.19990000    0.14848462   -2.43046154
 C                 -0.70290000   -0.14651538   -2.61146154
 C                  0.08810000    0.48548462   -1.45246154
 C                 -0.47490000   -1.66651538   -2.63146154
 C                  0.43610000    0.47048462    1.14053846
 C                  0.52110000    2.01248462    1.15753846
 C                  1.03310000    2.52848462    2.50953846
 C                  2.35110000    1.83948462    2.87653846
 C                  2.18810000    0.31648462    2.77953846
 N                  1.72910000   -0.14651538    1.47053846
 C                  2.78110000    0.02648462    0.47653846
 H                 -3.05290000   -2.43451538   -1.94846154
 H                 -2.82990000   -2.43051538   -0.16946154
 H                 -3.75090000   -0.23051538   -0.94946154
 H                 -2.23290000   -0.25951538    1.01853846
 H                 -2.05490000    1.25148462    0.08653846
 H                 -0.80990000   -3.37951538   -1.32346154
 H                  0.89410000   -1.95451538   -0.26246154
 H                 -0.51090000   -2.10751538    0.82353846
 H                 -2.38090000    1.25048462   -2.44046154
 H                 -2.78590000   -0.28151538   -3.27646154
 H                 -0.35790000    0.29148462   -3.58146154
 H                 -0.08890000    1.58548462   -1.46046154
 H                  1.17110000    0.34648462   -1.65446154
 H                 -1.02090000   -2.12651538   -3.48846154
 H                  0.60810000   -1.89051538   -2.78046154
 H                 -0.22990000    0.20348462    1.99653846
 H                 -0.47690000    2.47148462    0.97253846
 H                  1.18810000    2.38548462    0.34753846
 H                  0.27310000    2.31448462    3.29853846
 H                  1.17010000    3.63648462    2.47953846
 H                  2.65310000    2.12648462    3.91353846
 H                  3.16610000    2.19148462    2.20253846
 H                  1.46210000   -0.01951538    3.55853846
 H                  3.14710000   -0.18751538    3.05153846
 H                  2.94510000    1.08748462    0.19053846
 H                  3.74810000   -0.37951538    0.85253846
 H                  2.57610000   -0.56751538   -0.43846154

 1 2 1.0 4 1.0 18 1.0 19 1.0
 2 3 1.0 7 1.0 20 1.0
 3 6 1.0 21 1.0 22 1.0
 4 5 1.0 10 1.0 23 1.0
 5 6 1.0 24 1.0 25 1.0
 6 9 1.0 11 1.0
 7 8 1.0 26 1.0 27 1.0
 8 9 1.0 10 1.0 28 1.0
 9 29 1.0 30 1.0
 10 31 1.0 32 1.0
 11 12 1.0 16 1.0 33 1.0
 12 13 1.0 34 1.0 35 1.0
 13 14 1.0 36 1.0 37 1.0
 14 15 1.0 38 1.0 39 1.0
 15 16 1.0 40 1.0 41 1.0
 16 17 1.0
 17 42 1.0 43 1.0 44 1.0
 18
 19
 20
 21
 22
 23
 24
 25
 26
 27
 28
 29
 30
 31
 32
 33
 34
 35
 36
 37
 38
 39
 40
 41
 42
 43
 44

