# opt dreiding

2-(2-Ad)-N-Me-piperidine-ax,ax

0 1
 C                 -0.17582308   -1.30883846    0.34219231
 C                  0.30517692   -1.93683846    1.66919231
 C                 -0.61382308   -1.58983846    2.84619231
 C                 -2.06282308   -1.95283846    2.50319231
 C                 -2.46582308   -1.34883846    1.14919231
 N                 -1.56382308   -1.68583846    0.05319231
 C                 -1.69582308   -3.08383846   -0.33580769
 H                  0.46317692   -1.73583846   -0.46380769
 H                  1.35217692   -1.63983846    1.90519231
 H                  0.35217692   -3.04683846    1.57119231
 H                 -0.54282308   -0.50183846    3.07919231
 H                 -0.28882308   -2.13283846    3.76619231
 H                 -2.74582308   -1.58283846    3.30519231
 H                 -2.17782308   -3.06183846    2.48219231
 H                 -2.52482308   -0.23983846    1.25319231
 H                 -3.50582308   -1.66183846    0.89219231
 H                 -1.41682308   -3.79383846    0.47319231
 H                 -2.74582308   -3.30283846   -0.63780769
 H                 -1.06282308   -3.30183846   -1.22680769
 C                  1.69117692    2.49416154   -1.97480769
 C                  1.66617692    0.96216154   -2.11880769
 C                  2.30417692    0.32616154   -0.87280769
 C                  0.89717692    2.90016154   -0.72180769
 C                  1.52717692    2.25016154    0.52019231
 C                  1.49217692    0.71516154    0.37619231
 C                  0.21017692    0.48716154   -2.25380769
 C                 -0.58082308    0.88516154   -0.99480769
 C                  0.02317692    0.23516154    0.27519231
 C                 -0.55582308    2.42016154   -0.85880769
 H                  1.25217692    2.97316154   -2.88180769
 H                  2.74417692    2.85716154   -1.89780769
 H                  2.24417692    0.66516154   -3.02880769
 H                  3.35917692    0.67616154   -0.76680769
 H                  2.36217692   -0.77983846   -0.98580769
 H                  0.91617692    4.01316154   -0.61280769
 H                  0.97917692    2.56616154    1.43919231
 H                  2.57917692    2.60416154    0.64219231
 H                  0.17417692   -0.61583846   -2.41380769
 H                 -0.25482308    0.94516154   -3.15780769
 H                 -1.64782308    0.58016154   -1.12080769
 H                 -0.51082308    0.66716154    1.15119231
 H                 -1.03182308    2.89516154   -1.74880769
 H                 -1.15282308    2.74016154    0.02819231
 H                  1.98317692    0.28816154    1.28219231

 1 2 1.0 6 1.0 8 1.0 28 1.0
 2 3 1.0 9 1.0 10 1.0
 3 4 1.0 11 1.0 12 1.0
 4 5 1.0 13 1.0 14 1.0
 5 6 1.0 15 1.0 16 1.0
 6 7 1.0
 7 17 1.0 18 1.0 19 1.0
 8
 9
 10
 11
 12
 13
 14
 15
 16
 17
 18
 19
 20 21 1.0 23 1.0 30 1.0 31 1.0
 21 22 1.0 26 1.0 32 1.0
 22 25 1.0 33 1.0 34 1.0
 23 24 1.0 29 1.0 35 1.0
 24 25 1.0 36 1.0 37 1.0
 25 28 1.0 44 1.0
 26 27 1.0 38 1.0 39 1.0
 27 28 1.0 29 1.0 40 1.0
 28 41 1.0
 29 42 1.0 43 1.0
 30
 31
 32
 33
 34
 35
 36
 37
 38
 39
 40
 41
 42
 43
 44

