# opt dreiding

2-(2-Ad)-N-Me-piperidine-eq,ax

0 1
 C                 -0.38234615   -1.08192308    0.41563077
 C                 -1.82734615   -1.62392308    0.40663077
 C                 -1.85534615   -3.15692308    0.49063077
 C                 -1.02134615   -3.64892308    1.67763077
 C                  0.37865385   -3.02292308    1.62163077
 N                  0.37165385   -1.56392308    1.57963077
 C                 -0.06934615   -1.00692308    2.85263077
 H                  0.10765385   -1.52292308   -0.48236923
 H                 -2.35434615   -1.34092308   -0.53336923
 H                 -2.41934615   -1.18192308    1.24163077
 H                 -1.43534615   -3.58392308   -0.45136923
 H                 -2.90634615   -3.52492308    0.57563077
 H                 -0.94334615   -4.76292308    1.64963077
 H                 -1.53234615   -3.39392308    2.63463077
 H                  0.91065385   -3.40592308    0.71763077
 H                  0.98765385   -3.37692308    2.48763077
 H                 -1.14134615   -1.20592308    3.06863077
 H                  0.53465385   -1.42692308    3.68963077
 H                  0.09565385    0.09207692    2.89663077
 C                  1.22965385    2.68907692   -2.13236923
 C                  0.43465385    3.11507692   -0.88636923
 C                 -0.99634615    2.56207692   -0.97936923
 C                  1.26865385    1.15307692   -2.21236923
 C                 -0.16734615    0.61107692   -2.30536923
 C                 -0.95434615    1.02207692   -1.04836923
 C                  1.11065385    2.55007692    0.37263077
 C                  1.14365385    1.01207692    0.29463077
 C                 -0.30334615    0.46107692    0.24063077
 C                  1.94865385    0.59807692   -0.95036923
 H                  2.26665385    3.09907692   -2.08636923
 H                  0.75865385    3.11107692   -3.05236923
 H                  0.40265385    4.23107692   -0.82736923
 H                 -1.50634615    2.97607692   -1.88136923
 H                 -1.59434615    2.89607692   -0.09836923
 H                  1.84665385    0.84207692   -3.11736923
 H                 -0.15834615   -0.49692308   -2.42736923
 H                 -0.66634615    1.01507692   -3.21736923
 H                  0.56165385    2.87907692    1.28663077
 H                  2.14665385    2.95507692    0.46263077
 H                  1.67265385    0.63807692    1.20363077
 H                 -0.88234615    0.89507692    1.08863077
 H                  2.99065385    0.98807692   -0.87836923
 H                  2.04065385   -0.51092308   -1.01436923
 H                 -2.00934615    0.67107692   -1.14136923

 1 2 1.0 6 1.0 8 1.0 28 1.0
 2 3 1.0 9 1.0 10 1.0
 3 4 1.0 11 1.0 12 1.0
 4 5 1.0 13 1.0 14 1.0
 5 6 1.0 15 1.0 16 1.0
 6 7 1.0
 7 17 1.0 18 1.0 19 1.0
 8
 9
 10
 11
 12
 13
 14
 15
 16
 17
 18
 19
 20 21 1.0 23 1.0 30 1.0 31 1.0
 21 22 1.0 26 1.0 32 1.0
 22 25 1.0 33 1.0 34 1.0
 23 24 1.0 29 1.0 35 1.0
 24 25 1.0 36 1.0 37 1.0
 25 28 1.0 44 1.0
 26 27 1.0 38 1.0 39 1.0
 27 28 1.0 29 1.0 40 1.0
 28 41 1.0
 29 42 1.0 43 1.0
 30
 31
 32
 33
 34
 35
 36
 37
 38
 39
 40
 41
 42
 43
 44

