# opt dreiding

2-methylpiperidine-eq

0 1
 C                 -0.69585714   -0.54348214    0.51298214
 N                 -0.67085714    0.90751786    0.52898214
 C                  0.67314286    1.44551786    0.50998214
 C                  0.03714286   -1.09048214   -0.72301786
 C                  1.46114286    0.97051786   -0.71801786
 C                  1.47614286   -0.56148214   -0.77701786
 H                 -1.15085714    1.23951786    1.36598214
 H                 -0.18685714   -0.91548214    1.43598214
 H                  1.19914286    1.14751786    1.44798214
 H                  0.60614286    2.55951786    0.51298214
 H                 -0.50585714   -0.77948214   -1.64601786
 H                  0.04514286   -2.20648214   -0.70301786
 H                  2.50414286    1.36551786   -0.68401786
 H                  0.98314286    1.37451786   -1.64301786
 H                  2.05614286   -0.96448214    0.08698214
 H                  1.98414286   -0.90948214   -1.70901786
 C                 -2.15585714   -1.02348214    0.55198214
 H                 -2.72085714   -0.66748214   -0.34001786
 H                 -2.21285714   -2.13648214    0.57198214
 H                 -2.67985714   -0.64248214    1.45898214

 1 2 1.0 4 1.0 8 1.0 17 1.0
 2 3 1.0 7 1.0
 3 5 1.0 9 1.0 10 1.0
 4 6 1.0 11 1.0 12 1.0
 5 6 1.0 13 1.0 14 1.0
 6 15 1.0 16 1.0
 7
 8
 9
 10
 11
 12
 13
 14
 15
 16
 17 18 1.0 19 1.0 20 1.0
 18
 19
 20

