# opt dreiding

2-propylamine-a

0 1
 C                  0.21202941   -1.41252941   -0.27379412
 C                  0.17002941    0.12147059   -0.27779412
 C                 -1.26997059    0.65147059   -0.27879412
 N                  0.87802941    0.63247059    0.87220588
 H                  1.26202941   -1.78652941   -0.27979412
 H                 -0.29097059   -1.82552941    0.63120588
 H                 -0.30097059   -1.82952941   -1.17079412
 H                  0.69702941    0.49747059   -1.18879412
 H                 -1.28897059    1.76547059   -0.28979412
 H                 -1.82697059    0.29547059   -1.17579412
 H                 -1.82397059    0.31047059    0.62620588
 H                  1.85102941    0.33147059    0.86420588
 H                  0.90302941    1.65147059    0.86020588

 1 2 1.0 5 1.0 6 1.0 7 1.0
 2 3 1.0 4 1.0 8 1.0
 3 9 1.0 10 1.0 11 1.0
 4 12 1.0 13 1.0
 5
 6
 7
 8
 9
 10
 11
 12
 13

