#p Opt=(Modredun,nomicro) dreiding

3b-aminotropane-2b

1 1
 N                 -0.69663291   -0.54532911   -0.52867089
 C                 -0.67663291    0.90667089   -0.48867089
 C                  0.71336709   -0.88732911   -0.47067089
 C                 -0.30363291    1.37567089    0.93532911
 C                  1.24736709   -0.62632911    0.95532911
 C                  0.31136709    0.25867089    1.79332911
 C                 -1.39663291   -1.09832911   -1.67067089
 N                 -0.73263291   -0.54332911    2.39232911
 C                  1.35636709    0.06267089   -1.50267089
 C                  0.41436709    1.27867089   -1.51467089
 H                 -1.66663291    1.34167089   -0.76967089
 H                  0.88936709   -1.95832911   -0.73667089
 H                 -1.21263291    1.76567089    1.45432911
 H                  0.40036709    2.23867089    0.89032911
 H                  2.25936709   -0.16132911    0.91532911
 H                  1.39136709   -1.59732911    1.48832911
 H                  0.87636709    0.70567089    2.64832911
 H                 -0.96863291   -0.77632911   -2.64667089
 H                 -1.37063291   -2.21032911   -1.62067089
 H                 -2.46763291   -0.79432911   -1.63467089
 H                 -1.33163291    0.02567089    2.98932911
 H                 -0.33663291   -1.25732911    3.00232911
 H                  1.38836709   -0.41732911   -2.50967089
 H                  2.40536709    0.34167089   -1.24867089
 H                 -0.03263291    1.41767089   -2.52867089
 H                  0.94336709    2.22867089   -1.26767089
 H                 -1.15763291   -0.89432911    0.30932911

2 4 6 8 -84.0 F
3 5 6 8 84.0 F