# opt dreiding

3b-aminotropane-2a

1 1
 N                 -0.99383544   -0.77505063   -0.48106329
 C                 -0.97683544    0.67694937   -0.47906329
 C                  0.41516456   -1.12205063   -0.46006329
 C                 -0.58883544    1.14794937    0.93593671
 C                  0.95416456   -0.84505063    0.95693671
 C                  0.79816456    0.63294937    1.34593671
 C                 -1.72783544   -1.35505063   -1.58806329
 N                  1.02116456    0.81994937    2.75993671
 C                  1.04316456   -0.18405063   -1.50906329
 C                  0.09816456    1.03594937   -1.52206329
 H                 -1.97983544    1.09794937   -0.73506329
 H                  0.57416456   -2.20105063   -0.70006329
 H                 -0.61383544    2.26194937    0.99193671
 H                 -1.35183544    0.76894937    1.65693671
 H                  0.38916456   -1.47905063    1.68093671
 H                  2.02616456   -1.14705063    1.02893671
 H                  1.58016456    1.23194937    0.82293671
 H                 -1.32483544   -1.05405063   -2.58106329
 H                 -1.70083544   -2.46505063   -1.51406329
 H                 -2.79683544   -1.04905063   -1.52906329
 H                  1.95916456    0.52094937    3.02193671
 H                  0.96416456    1.80694937    3.00893671
 H                  1.06316456   -0.67405063   -2.51206329
 H                  2.09416456    0.08594937   -1.25506329
 H                 -0.36083544    1.16394937   -2.53106329
 H                  0.62016456    1.98994937   -1.27606329
 H                 -1.42483544   -1.09905063    0.38593671

 1 2 1.0 3 1.0 7 1.0 27 1.0
 2 4 1.0 10 1.0 11 1.0
 3 5 1.0 9 1.0 12 1.0
 4 6 1.0 13 1.0 14 1.0
 5 6 1.0 15 1.0 16 1.0
 6 8 1.0 17 1.0
 7 18 1.0 19 1.0 20 1.0
 8 21 1.0 22 1.0
 9 10 1.0 23 1.0 24 1.0
 10 25 1.0 26 1.0
 11
 12
 13
 14
 15
 16
 17
 18
 19
 20
 21
 22
 23
 24
 25
 26
 27

