# opt dreiding

3b-aminotropane-3c

2 1
 N                 -1.00366250   -0.78846250   -0.71511250
 C                 -1.00066250    0.66153750   -0.69011250
 C                  0.40133750   -1.14346250   -0.66911250
 C                 -0.51666250    1.21753750    0.66388750
 C                  1.04433750   -0.79146250    0.68688750
 C                  0.89033750    0.70353750    0.98688750
 C                 -1.87366250   -1.45346250    0.22788750
 N                  1.10233750    0.88553750    2.45788750
 C                  0.95533750   -0.25646250   -1.80311250
 C                  0.00833750    0.96253750   -1.81711250
 H                 -2.01566250    1.05753750   -0.93511250
 H                  0.53733750   -2.22846250   -0.89611250
 H                 -0.51066250    2.33353750    0.63188750
 H                 -1.23666250    0.94053750    1.46788750
 H                  0.58933750   -1.40846250    1.49588750
 H                  2.12733750   -1.06146250    0.67188750
 H                  1.66533750    1.29953750    0.44788750
 H                 -1.62166250   -1.24446250    1.28988750
 H                 -2.92566250   -1.13446250    0.04688750
 H                 -1.82266250   -2.55346250    0.06388750
 H                  2.04633750    0.56153750    2.75988750
 H                  1.01833750    1.88453750    2.74388750
 H                  0.89333750   -0.79846250   -2.77711250
 H                  2.02233750    0.02453750   -1.64211250
 H                 -0.52166250    1.02153750   -2.79811250
 H                  0.54133750    1.92953750   -1.66411250
 H                 -1.33566250   -1.05646250   -1.64411250
 H                  0.40633750    0.35153750    3.02088750

 1 2 1.0 3 1.0 7 1.0 27 1.0
 2 4 1.0 10 1.0 11 1.0
 3 5 1.0 9 1.0 12 1.0
 4 6 1.0 13 1.0 14 1.0
 5 6 1.0 15 1.0 16 1.0
 6 8 1.0 17 1.0
 7 18 1.0 19 1.0 20 1.0
 8 21 1.0 22 1.0 28 1.0
 9 10 1.0 23 1.0 24 1.0
 10 25 1.0 26 1.0
 11
 12
 13
 14
 15
 16
 17
 18
 19
 20
 21
 22
 23
 24
 25
 26
 27
 28

