# opt dreiding

4-methylpiperidine-ax

0 1
 C                 -1.40757143   -0.47985714    0.52350000
 N                 -1.37257143    0.96714286    0.52250000
 C                 -0.02157143    1.48714286    0.52050000
 C                 -0.65357143   -1.07085714   -0.67650000
 C                  0.78742857    0.97514286   -0.67850000
 C                  0.79542857   -0.56085714   -0.75550000
 H                 -1.86257143    1.31314286    1.34850000
 H                 -2.47457143   -0.80385714    0.49750000
 H                 -0.98357143   -0.85685714    1.48350000
 H                  0.47642857    1.21714286    1.48050000
 H                 -0.07657143    2.60114286    0.49350000
 H                 -1.19257143   -0.77785714   -1.60950000
 H                 -0.66957143   -2.18585714   -0.63250000
 H                  1.83142857    1.36614286   -0.63650000
 H                  0.32842857    1.38214286   -1.61150000
 H                  1.21942857   -0.86085714   -1.74750000
 C                  1.69742857   -1.19485714    0.31550000
 H                  1.71442857   -2.30485714    0.21750000
 H                  2.74842857   -0.83685714    0.21550000
 H                  1.36342857   -0.95785714    1.34950000

 1 2 1.0 4 1.0 8 1.0 9 1.0
 2 3 1.0 7 1.0
 3 5 1.0 10 1.0 11 1.0
 4 6 1.0 12 1.0 13 1.0
 5 6 1.0 14 1.0 15 1.0
 6 16 1.0 17 1.0
 7
 8
 9
 10
 11
 12
 13
 14
 15
 16
 17 18 1.0 19 1.0 20 1.0
 18
 19
 20

