# opt dreiding

butanediamine-H+-gGGG

1 1
 C                 -1.45874510   -0.62323529   -0.20684314
 N                 -1.06274510   -0.08123529   -1.54584314
 H                 -2.56074510   -0.78923529   -0.23284314
 H                 -0.95374510   -1.60023529   -0.02784314
 H                 -1.28774510   -0.74623529   -2.31684314
 H                 -1.55674510    0.81076471   -1.76384314
 H                 -0.04374510    0.12076471   -1.61084314
 C                 -1.08374510    0.42076471    0.85315686
 C                  0.36225490    0.35176471    1.37615686
 C                  1.46325490    0.57776471    0.33015686
 N                  1.72525490   -0.60523529   -0.45084314
 H                  2.41825490    0.84176471    0.84215686
 H                  1.20125490    1.42376471   -0.34784314
 H                  1.99325490   -1.38523529    0.14915686
 H                  2.51325490   -0.45723529   -1.07984314
 H                 -1.29974510    1.44576471    0.46915686
 H                 -1.76174510    0.27276471    1.72915686
 H                  0.47125490    1.13376471    2.16815686
 H                  0.53125490   -0.62823529    1.88315686

 1 2 1.0 3 1.0 4 1.0 8 1.0
 2 5 1.0 6 1.0 7 1.0
 3
 4
 5
 6
 7
 8 9 1.0 16 1.0 17 1.0
 9 10 1.0 18 1.0 19 1.0
 10 11 1.0 12 1.0 13 1.0
 11 14 1.0 15 1.0
 12
 13
 14
 15
 16
 17
 18
 19

