# opt dreiding

ethanediamineH+-Gg

1 1
 C                 -0.55091429   -0.81485714    0.04734286
 C                 -0.61891429    0.68814286    0.33534286
 N                  0.31208571    1.35314286   -0.63065714
 N                  0.76808571   -1.34185714    0.29634286
 H                 -1.26691429   -1.35585714    0.70934286
 H                 -0.83391429   -1.03085714   -1.01065714
 H                 -1.64691429    1.08614286    0.17334286
 H                 -0.29191429    0.92214286    1.37534286
 H                  0.04608571    1.16614286   -1.62065714
 H                  0.78008571   -2.35485714    0.18534286
 H                  0.32308571    2.38914286   -0.51065714
 H                  1.05408571   -1.16585714    1.25834286
 H                  1.29408571    1.02514286   -0.51565714

 1 2 1.0 4 1.0 5 1.0 6 1.0
 2 3 1.0 7 1.0 8 1.0
 3 9 1.0 11 1.0 13 1.0
 4 10 1.0 12 1.0
 5
 6
 7
 8
 9
 10
 11
 12
 13

