# opt dreiding

ethylamine-g

0 1
 N                  0.50173077   -1.13865385    0.03573077
 C                  0.47173077    0.30234615    0.04573077
 C                 -0.97026923    0.82234615    0.02173077
 H                  1.00373077    0.66634615    0.95673077
 H                  1.02673077    0.66834615   -0.85026923
 H                 -0.99326923    1.93634615    0.02273077
 H                 -1.50826923    0.47034615   -0.88926923
 H                  0.02873077   -1.50665385   -0.78826923
 H                 -1.53826923    0.46834615    0.91273077
 H                  1.45973077   -1.48065385   -0.01926923

 1 2 1.0 8 1.0 10 1.0
 2 3 1.0 4 1.0 5 1.0
 3 6 1.0 7 1.0 9 1.0
 4
 5
 6
 7
 8
 9
 10

