# opt dreiding

Gly-Gly-E

0 1
 C                 -0.34747143   -2.31204286   -0.83611429
 C                 -0.79547143   -0.90904286   -0.47211429
 O                 -1.49147143   -0.26604286   -1.22311429
 N                 -0.35147143   -0.44304286    0.74888571
 C                 -0.65947143    0.89295714    1.20288571
 C                  0.40552857    1.86295714    0.73588571
 O                  1.11852857    2.45095714    1.54888571
 O                  0.59452857    2.09095714   -0.62311429
 N                  1.14552857   -2.36704286   -0.91611429
 H                 -1.65747143    1.23695714    0.84588571
 H                 -0.69047143    0.87095714    2.31688571
 H                  0.25152857   -1.06004286    1.29788571
 H                  1.48852857   -3.32104286   -1.16111429
 H                  1.52252857   -1.71604286   -1.63811429
 H                 -0.76447143   -2.61704286   -1.82311429
 H                 -0.69547143   -3.03104286   -0.06011429
 H                  1.59552857   -2.10804286   -0.01211429

 1 2 1.0 9 1.0 15 1.0 16 1.0
 2 3 2.0 4 1.5
 3
 4 5 1.0 12 1.0
 5 6 1.0 10 1.0 11 1.0
 6 7 2.0 8 1.0
 7
 8
 9 13 1.0 14 1.0 17 1.0
 10
 11
 12
 13
 14
 15
 16
 17

