# opt dreiding

isopropylamine-a

0 1
 C                  0.21876471   -1.40891176   -0.28891176
 C                  0.17476471    0.12608824   -0.27391176
 C                 -1.26623529    0.65308824   -0.29091176
 N                  0.86176471    0.62208824    0.89508824
 H                  1.26976471   -1.78091176   -0.28291176
 H                 -0.29723529   -1.83391176    0.60208824
 H                 -0.27823529   -1.81491176   -1.19991176
 H                  0.71676471    0.51508824   -1.16991176
 H                 -1.28723529    1.76708824   -0.28691176
 H                 -1.80823529    0.30808824   -1.20191176
 H                 -1.83423529    0.29908824    0.59908824
 H                  1.83676471    0.32308824    0.89908824
 H                  0.88576471    1.64108824    0.89808824

 1 2 1.0 5 1.0 6 1.0 7 1.0
 2 3 1.0 4 1.0 8 1.0
 3 9 1.0 10 1.0 11 1.0
 4 12 1.0 13 1.0
 5
 6
 7
 8
 9
 10
 11
 12
 13

