# opt dreiding

N,4-dimethylpiperidine-eq,eq

0 1
 C                 -1.09835937   -0.69639063    0.61739063
 N                 -1.08035937    0.75960937    0.61639063
 C                  0.28464063    1.26960937    0.61639063
 C                 -0.35035937   -1.27839063   -0.59260937
 C                  1.08464063    0.76160937   -0.59360937
 C                  1.09964063   -0.77339063   -0.63160937
 C                 -1.83435937    1.29160937    1.74239063
 H                 -2.15435937   -1.05839063    0.58639063
 H                  0.80764063    0.97160937    1.55639063
 H                  0.26764063    2.38560937    0.58539063
 H                 -0.87635937   -0.97639063   -1.52960937
 H                  2.12964063    1.15260937   -0.55060937
 H                  0.62264063    1.15460937   -1.52960937
 H                  1.62964063   -1.14639063    0.27939063
 H                 -1.39135937    0.97960937    2.71639063
 H                 -1.86135937    2.40460937    1.70339063
 H                 -2.89135937    0.94060937    1.70439063
 H                 -0.64135937   -1.08739063    1.55739063
 C                  1.84264063   -1.29739063   -1.86960938
 H                 -0.36635937   -2.39439063   -0.54960937
 H                  1.35464063   -0.95439063   -2.81060937
 H                  2.89864063   -0.94139063   -1.88360937
 H                  1.86364063   -2.41139063   -1.88260937

 1 2 1.0 4 1.0 8 1.0 18 1.0
 2 3 1.0 7 1.0
 3 5 1.0 9 1.0 10 1.0
 4 6 1.0 11 1.0 20 1.0
 5 6 1.0 12 1.0 13 1.0
 6 14 1.0 19 1.0
 7 15 1.0 16 1.0 17 1.0
 8
 9
 10
 11
 12
 13
 14
 15
 16
 17
 18
 19 21 1.0 22 1.0 23 1.0
 20
 21
 22
 23

