# opt dreiding

N,4-dimethylpiperidine-eq,ax

0 1
 C                 -1.12370313   -0.67995312    0.30100000
 N                 -1.10370313    0.77704688    0.29400000
 C                  0.26029688    1.28804688    0.30100000
 C                 -0.36770313   -1.26795312   -0.89900000
 C                  1.06929688    0.77304688   -0.90000000
 C                  1.08129688   -0.76095312   -0.97600000
 C                 -1.86670313    1.31404688    1.41200000
 H                 -2.18170313   -1.03695312    0.25900000
 H                  0.77329687    1.01104688    1.25200000
 H                  0.23929688    2.40304688    0.25800000
 H                 -0.90470312   -0.97295312   -1.83300000
 H                  2.11329688    1.16504688   -0.86000000
 H                  0.60929688    1.17904688   -1.83300000
 H                  1.50729687   -1.06095312   -1.96700000
 H                 -1.43070312    1.00804688    2.39200000
 H                 -1.89370312    2.42704688    1.36800000
 H                 -2.92370313    0.96304688    1.36900000
 H                 -0.68970312   -1.06895312    1.25200000
 C                  1.98229688   -1.39495312    0.09700000
 H                 -0.38370312   -2.38295312   -0.85900000
 H                  1.64729688   -1.15895312    1.13100000
 H                  2.00029688   -2.50495312   -0.00100000
 H                  3.03329688   -1.03695312   -0.00200000

 1 2 1.0 4 1.0 8 1.0 18 1.0
 2 3 1.0 7 1.0
 3 5 1.0 9 1.0 10 1.0
 4 6 1.0 11 1.0 20 1.0
 5 6 1.0 12 1.0 13 1.0
 6 14 1.0 19 1.0
 7 15 1.0 16 1.0 17 1.0
 8
 9
 10
 11
 12
 13
 14
 15
 16
 17
 18
 19 21 1.0 22 1.0 23 1.0
 20
 21
 22
 23

