# opt dreiding

N-Ac-Ala-N-methylamide,g-g+

0 1
 C                 -0.99932051   -2.98805128    0.64064103
 C                 -0.96832051   -1.49705128    0.35764103
 O                 -1.46932051   -0.71505128    1.12864103
 N                 -0.31732051   -1.13605128   -0.80535897
 C                 -0.16832051    0.23594872   -1.25535897
 C                  0.94667949    0.96594872   -0.50535897
 O                  1.83367949    1.51494872   -1.11835897
 N                  0.85767949    0.97694872    0.86964103
 H                  0.03867949   -3.38205128    0.72864103
 H                 -1.52132051   -3.52305128   -0.18535897
 H                 -1.53632051   -3.20705128    1.59164103
 C                 -1.46432051    1.06094872   -1.26335897
 H                  0.16467949    0.14494872   -2.31735897
 C                  1.84167949    1.66694872    1.66664103
 H                  0.10967949   -1.89505128   -1.34335897
 H                  0.05367949    0.52094872    1.30464103
 H                  1.62967949    1.46694872    2.74064103
 H                  1.78067949    2.76494872    1.49064103
 H                  2.86767949    1.29994872    1.43464103
 H                 -2.27932051    0.51894872   -1.79635897
 H                 -1.82432051    1.30394872   -0.23935897
 H                 -1.30932051    2.03294872   -1.78635897

 1 2 1.0 9 1.0 10 1.0 11 1.0
 2 3 2.0 4 1.5
 3
 4 5 1.0 15 1.0
 5 6 1.0 12 1.0 13 1.0
 6 7 2.0 8 1.5
 7
 8 14 1.0 16 1.0
 9
 10
 11
 12 20 1.0 21 1.0 22 1.0
 13
 14 17 1.0 18 1.0 19 1.0
 15
 16
 17
 18
 19
 20
 21
 22

