# opt dreiding

N-Ac-Ala-N-methylamide,aa

0 1
 C                 -1.46551282   -3.12358974    0.71214103
 C                 -0.69251282   -2.15058974   -0.15785897
 O                  0.09848718   -2.54758974   -0.97985897
 N                 -0.96951282   -0.81558974    0.06314103
 C                 -0.25751282    0.24641026   -0.62585897
 C                  0.54648718    1.08441026    0.36914103
 O                  0.37548718    0.97041026    1.56114103
 N                  1.43948718    1.97841026   -0.18585897
 H                 -2.55951282   -3.00158974    0.54314103
 H                 -1.24251282   -2.93458974    1.78714103
 H                 -1.19251282   -4.17858974    0.48014103
 C                 -1.25151282    1.12641026   -1.39685897
 H                  0.48148718   -0.17658974   -1.34685897
 C                  2.23848718    2.83341026    0.65614103
 H                 -1.62751282   -0.59058974    0.81214103
 H                  1.52848718    2.00741026   -1.20385897
 H                  2.87048718    3.48041026    0.00614103
 H                  2.90648718    2.22641026    1.30814103
 H                  1.58848718    3.48741026    1.28114103
 H                 -1.82651282    0.52041026   -2.13585897
 H                 -1.98251282    1.60241026   -0.70385897
 H                 -0.73351282    1.93641026   -1.95985897

 1 2 1.0 9 1.0 10 1.0 11 1.0
 2 3 2.0 4 1.5
 3
 4 5 1.0 15 1.0
 5 6 1.0 12 1.0 13 1.0
 6 7 2.0 8 1.5
 7
 8 14 1.0 16 1.0
 9
 10
 11
 12 20 1.0 21 1.0 22 1.0
 13
 14 17 1.0 18 1.0 19 1.0
 15
 16
 17
 18
 19
 20
 21
 22

