# opt dreiding

N-Ac-Gly-N-Me-a-a

0 1
 C                 -1.52584286   -3.20024286    0.07245714
 C                 -1.64384286   -1.69324286   -0.06054286
 O                 -2.71484286   -1.16024286   -0.23054286
 N                 -0.45884286   -0.99224286    0.02645714
 C                 -0.43784286    0.44675714   -0.08454286
 C                  0.99215714    0.96175714    0.04145714
 O                  1.91615714    0.20075714    0.21145714
 N                  1.13815714    2.32975714   -0.05054286
 H                 -0.87184286   -3.60424286   -0.73354286
 H                 -1.08684286   -3.46324286    1.06145714
 H                 -2.52284286   -3.69024286   -0.00854286
 H                 -0.83984286    0.75275714   -1.07854286
 H                 -1.05184286    0.89575714    0.73045714
 C                  2.44215714    2.93675714    0.05345714
 H                  0.40815714   -1.51524286    0.17145714
 H                  0.30115714    2.89975714   -0.19454286
 H                  2.33015714    4.03875714   -0.04754286
 H                  2.89715714    2.71675714    1.04645714
 H                  3.11015714    2.57175714   -0.75954286

 1 2 1.0 9 1.0 10 1.0 11 1.0
 2 3 2.0 4 1.5
 3
 4 5 1.0 15 1.0
 5 6 1.0 12 1.0 13 1.0
 6 7 2.0 8 1.5
 7
 8 14 1.0 16 1.0
 9
 10
 11
 12
 13
 14 17 1.0 18 1.0 19 1.0
 15
 16
 17
 18
 19

