# opt dreiding

N-methylformamide-Z

0 1
 C                 -0.19381250   -0.75678125   -0.20221875
 O                 -1.21181250   -1.26178125   -0.60021875
 N                 -0.06881250    0.58021875    0.09278125
 H                 -0.90481250    1.15121875   -0.04521875
 C                  1.17218750    1.14421875    0.56478125
 H                  1.02118750    2.23021875    0.75478125
 H                  1.48618750    0.65621875    1.51578125
 H                  1.97018750    1.02421875   -0.20321875
 H                  0.73318750   -1.35378125   -0.04521875

 1 2 2.0 3 1.5 9 1.0
 2
 3 4 1.0 5 1.0
 4
 5 6 1.0 7 1.0 8 1.0
 6
 7
 8
 9

