# opt dreiding

N-Me-ethylamine-g-

0 1
 N                 -0.53982353   -0.73835294   -0.31273529
 C                 -0.49482353    0.70964706   -0.35473529
 C                  0.10017647    1.35464706    0.90426471
 C                  0.76017647   -1.36635294   -0.21873529
 H                  0.06717647    1.03864706   -1.26173529
 H                 -1.54382353    1.06964706   -0.48073529
 H                 -0.03682353    2.46064706    0.88326471
 H                 -0.39582353    0.96864706    1.82426471
 H                 -0.99782353   -1.07035294   -1.16373529
 H                  1.19517647    1.16764706    0.99226471
 H                  0.63317647   -2.47035294   -0.29873529
 H                  1.42017647   -1.03235294   -1.05173529
 H                  1.24417647   -1.15135294    0.76126471

 1 2 1.0 4 1.0 9 1.0
 2 3 1.0 5 1.0 6 1.0
 3 7 1.0 8 1.0 10 1.0
 4 11 1.0 12 1.0 13 1.0
 5
 6
 7
 8
 9
 10
 11
 12
 13

