# opt dreiding

N-Me-piperidine-ax

0 1
 C                 -0.83483929   -0.87464286    0.68246429
 N                 -0.82183929    0.58235714    0.68246429
 C                  0.54816071    1.08235714    0.67646429
 C                 -0.04183929   -1.51064286   -0.46953571
 C                  1.40916071    0.54135714   -0.47653571
 C                  1.40216071   -0.99264286   -0.47353571
 C                 -1.61583929    1.14135714   -0.40153571
 H                 -1.88883929   -1.24464286    0.67146429
 H                 -0.40383929   -1.23164286    1.64946429
 H                  1.03116071    0.79835714    1.64246429
 H                  0.54516071    2.19835714    0.66046429
 H                 -0.52683929   -1.29064286   -1.44953571
 H                 -0.04183929   -2.62264286   -0.36253571
 H                  2.45716071    0.91235714   -0.37353571
 H                  1.03616071    0.92035714   -1.45553571
 H                  1.92916071   -1.36264286    0.43746429
 H                  1.95616071   -1.38764286   -1.35853571
 H                 -2.67183929    0.79235714   -0.32653571
 H                 -1.63983929    2.25335714   -0.33053571
 H                 -1.23083929    0.86535714   -1.40853571

 1 2 1.0 4 1.0 8 1.0 9 1.0
 2 3 1.0 7 1.0
 3 5 1.0 10 1.0 11 1.0
 4 6 1.0 12 1.0 13 1.0
 5 6 1.0 14 1.0 15 1.0
 6 16 1.0 17 1.0
 7 18 1.0 19 1.0 20 1.0
 8
 9
 10
 11
 12
 13
 14
 15
 16
 17
 18
 19
 20

