# opt dreiding

N-methylformamide-E

0 1
 C                  0.47471875   -0.83325000   -0.03831250
 O                 -0.53028125   -1.40525000   -0.38231250
 N                  0.59771875    0.50875000    0.23468750
 H                  1.51571875    0.85875000    0.51968750
 C                 -0.54128125    1.38475000    0.12268750
 H                 -0.21928125    2.42075000    0.37168750
 H                 -0.94128125    1.37775000   -0.91631250
 H                 -1.33928125    1.08075000    0.83768750
 H                  1.44171875   -1.36625000    0.09668750

 1 2 2.0 3 1.5 9 1.0
 2
 3 4 1.0 5 1.0
 4
 5 6 1.0 7 1.0 8 1.0
 6
 7
 8
 9

