# opt dreiding

NAPA-g-

0 1
 C                 -0.55292727   -3.22325455    0.74740909
 C                  0.46907273   -2.14925455    0.42740909
 O                  1.49107273   -2.41325455   -0.15959091
 N                  0.15507273   -0.88225455    0.87540909
 C                  1.01807273    0.26074545    0.63240909
 C                  2.08807273    0.37874545    1.71640909
 O                  2.30607273    1.41674545    2.29240909
 N                  2.81007273   -0.75625455    1.99040909
 H                 -1.53292727   -2.96625455    0.28540909
 H                 -0.68292727   -3.30925455    1.85040909
 H                 -0.23092727   -4.21525455    0.35540909
 C                  0.16507273    1.53074545    0.46640909
 H                  1.57707273    0.10874545   -0.32159091
 H                  3.54107273   -0.69625455    2.70040909
 H                 -0.70292727   -0.77825455    1.42240909
 H                  2.63407273   -1.61125455    1.46140909
 C                 -0.85292727    1.35374545   -0.63859091
 C                 -0.49192727    1.54774545   -1.97659091
 C                 -2.16992727    0.97974545   -0.35059091
 C                 -3.10592727    0.80574545   -1.37159091
 C                 -1.42192727    1.37574545   -3.00259091
 C                 -2.73292727    1.00474545   -2.70159091
 H                  0.81107273    2.40974545    0.23140909
 H                 -0.35292727    1.76374545    1.42640909
 H                  0.54307273    1.83374545   -2.22859091
 H                 -2.47792727    0.80974545    0.69440909
 H                 -4.13892727    0.50674545   -1.12859091
 H                 -1.12092727    1.52974545   -4.05259091
 H                 -3.46992727    0.86474545   -3.51059091

 1 2 1.0 9 1.0 10 1.0 11 1.0
 2 3 2.0 4 1.5
 3
 4 5 1.0 15 1.0
 5 6 1.0 12 1.0 13 1.0
 6 7 2.0 8 1.5
 7
 8 14 1.0 16 1.0
 9
 10
 11
 12 17 1.0 23 1.0 24 1.0
 13
 14
 15
 16
 17 18 1.5 19 1.5
 18 21 1.5 25 1.0
 19 20 1.5 26 1.0
 20 22 1.5 27 1.0
 21 22 1.5 28 1.0
 22 29 1.0
 23
 24
 25
 26
 27
 28
 29

