# opt dreiding

piperidine-eq

0 1
 C                 -1.08377083   -0.70908333    0.60727083
 N                 -1.04777083    0.73791667    0.64227083
 C                  0.30322917    1.25891667    0.60827083
 C                 -0.37377083   -1.26908333   -0.63272917
 C                  1.06922917    0.77891667   -0.63272917
 C                  1.06922917   -0.75308333   -0.69972917
 H                 -1.50777083    1.06191667    1.49427083
 H                 -2.15077083   -1.03508333    0.61727083
 H                 -0.61177083   -1.10808333    1.53627083
 H                  0.83722917    0.94791667    1.53727083
 H                  0.25122917    2.37391667    0.61827083
 H                 -0.92577083   -0.95008333   -1.54972917
 H                 -0.38277083   -2.38508333   -0.61172917
 H                  2.11722917    1.16391667   -0.60972917
 H                  0.58422917    1.19191667   -1.54872917
 H                  1.65422917   -1.16508333    0.15727083
 H                  1.56422917   -1.10108333   -1.63872917

 1 2 1.0 4 1.0 8 1.0 9 1.0
 2 3 1.0 7 1.0
 3 5 1.0 10 1.0 11 1.0
 4 6 1.0 12 1.0 13 1.0
 5 6 1.0 14 1.0 15 1.0
 6 16 1.0 17 1.0
 7
 8
 9
 10
 11
 12
 13
 14
 15
 16
 17

