# opt dreiding

propanediamine-H+-TTg

1 1
 C                  0.51130233    1.14481395    0.68467442
 N                 -0.14669767    2.42781395    0.67267442
 H                  1.54930233    1.27381395    0.29467442
 H                  0.57830233    0.79981395    1.74267442
 H                 -1.09869767    2.35081395    1.03067442
 H                  0.32830233    3.08481395    1.29067442
 C                 -0.25969767    0.12081395   -0.16032558
 C                  0.43030233   -1.24918605   -0.14832558
 N                 -0.40669767   -2.15418605   -0.99832558
 H                  0.48330233   -1.67218605    0.88067442
 H                  1.45430233   -1.19518605   -0.58232558
 H                 -0.48569767   -1.80618605   -1.97832558
 H                 -0.01169767   -3.11718605   -1.05032558
 H                 -1.37869767   -2.24518605   -0.63232558
 H                 -1.29869767    0.02081395    0.23767442
 H                 -0.33769767    0.49181395   -1.21032558

 1 2 1.0 3 1.0 4 1.0 7 1.0
 2 5 1.0 6 1.0
 3
 4
 5
 6
 7 8 1.0 15 1.0 16 1.0
 8 9 1.0 10 1.0 11 1.0
 9 12 1.0 13 1.0 14 1.0
 10
 11
 12
 13
 14
 15
 16

