# opt dreiding

propylamine-a

0 1
 N                  0.80385294   -1.71329412    0.02894118
 C                  0.72285294   -0.27429412   -0.03705882
 C                 -0.73714706    0.19770588   -0.01505882
 H                  0.35385294   -2.06429412    0.87394118
 H                  1.27585294    0.14370588    0.83594118
 H                  1.23285294    0.06770588   -0.96805882
 H                 -1.28614706   -0.24629412   -0.88005882
 H                 -1.23414706   -0.16929412    0.91594118
 C                 -0.84114706    1.72670588   -0.07805882
 H                  1.77385294   -2.01929412    0.08594118
 H                 -1.90614706    2.05670588   -0.06205882
 H                 -0.32614706    2.20070588    0.78894118
 H                 -0.37814706    2.12270588   -1.01205882

 1 2 1.0 4 1.0 10 1.0
 2 3 1.0 5 1.0 6 1.0
 3 7 1.0 8 1.0 9 1.0
 4
 5
 6
 7
 8
 9 11 1.0 12 1.0 13 1.0
 10
 11
 12
 13

