# opt dreiding

pyrrolidine-eq

0 1
 C                 -0.98027500   -0.70090000   -0.30767500
 N                 -0.89027500    0.73810000   -0.42867500
 C                  0.52172500    1.04410000   -0.39767500
 C                  0.22372500   -1.14590000    0.54132500
 C                  1.07072500    0.12710000    0.70032500
 H                 -1.32127500    1.06410000   -1.29367500
 H                 -0.92327500   -1.14390000   -1.33067500
 H                 -1.95927500   -0.98890000    0.14432500
 H                  0.69172500    2.12710000   -0.19267500
 H                  0.97072500    0.78710000   -1.38667500
 H                  0.80072500   -1.94090000    0.01032500
 H                 -0.09027500   -1.54790000    1.53332500
 H                  0.88072500    0.59010000    1.69932500
 H                  2.16672500   -0.05990000    0.59932500

 1 2 1.0 4 1.0 7 1.0 8 1.0
 2 3 1.0 6 1.0
 3 5 1.0 9 1.0 10 1.0
 4 5 1.0 11 1.0 12 1.0
 5 13 1.0 14 1.0
 6
 7
 8
 9
 10
 11
 12
 13
 14

