# opt dreiding

1-4-diF-cyclohexane-dieq

0 1
 C                 -1.08512500   -0.76550000    0.65300000
 C                 -1.09212500    0.76850000    0.62500000
 C                 -0.35412500    1.30050000   -0.61200000
 C                  0.35487500   -1.30050000    0.61200000
 C                  1.09187500   -0.76850000   -0.62500000
 C                  1.08487500    0.76550000   -0.65300000
 F                 -2.41712500    1.20550000    0.57300000
 F                  2.41687500   -1.20550000   -0.57300000
 H                 -1.60212500   -1.13150000    1.57300000
 H                 -1.65212500   -1.15950000   -0.22400000
 H                 -0.61112500    1.16550000    1.55000000
 H                 -0.89512500    0.98250000   -1.53500000
 H                 -0.34812500    2.41650000   -0.60000000
 H                  0.89487500   -0.98250000    1.53500000
 H                  0.34787500   -2.41650000    0.60000000
 H                  0.61187500   -1.16550000   -1.55000000
 H                  1.65187500    1.15950000    0.22400000
 H                  1.60287500    1.13150000   -1.57300000

 1 2 1.0 4 1.0 9 1.0 10 1.0
 2 3 1.0 7 1.0 11 1.0
 3 6 1.0 12 1.0 13 1.0
 4 5 1.0 14 1.0 15 1.0
 5 6 1.0 8 1.0 16 1.0
 6 17 1.0 18 1.0
 7
 8
 9
 10
 11
 12
 13
 14
 15
 16
 17
 18

