# opt dreiding

cis1,3dimethylcyclohex-ax,ax

0 1
 C                 -0.89737500   -1.12762500    0.97196875
 C                 -0.93637500    0.40937500    0.99596875
 C                  0.47862500    0.99637500    0.82896875
 C                 -0.14237500   -1.67562500   -0.24703125
 C                  1.33062500    0.40937500   -0.31203125
 C                  1.29062500   -1.12762500   -0.29203125
 C                 -1.97237500    0.98437500    0.01596875
 H                 -1.93537500   -1.53862500    0.99796875
 H                 -0.38737500   -1.49362500    1.89496875
 H                 -1.29837500    0.71837500    2.00996875
 H                  1.02762500    0.79237500    1.77996875
 H                 -0.68437500   -1.41862500   -1.18603125
 H                 -0.11437500   -2.79162500   -0.19803125
 H                  2.38962500    0.71837500   -0.11903125
 H                  1.83462500   -1.49362500    0.61196875
 H                  1.83162500   -1.53862500   -1.17703125
 H                 -3.00337500    0.67337500    0.30196875
 H                 -1.95137500    2.09837500    0.01296875
 H                 -1.81837500    0.63837500   -1.02703125
 C                  1.00062500    0.98437500   -1.69903125
 H                  0.42862500    2.10737500    0.74296875
 H                  0.98662500    2.09837500   -1.68403125
 H                  1.76262500    0.67337500   -2.45003125
 H                  0.01962500    0.63837500   -2.08803125

 1 2 1.0 4 1.0 8 1.0 9 1.0
 2 3 1.0 7 1.0 10 1.0
 3 5 1.0 11 1.0 21 1.0
 4 6 1.0 12 1.0 13 1.0
 5 6 1.0 14 1.0 20 1.0
 6 15 1.0 16 1.0
 7 17 1.0 18 1.0 19 1.0
 8
 9
 10
 11
 12
 13
 14
 15
 16
 17
 18
 19
 20 22 1.0 23 1.0 24 1.0
 21
 22
 23
 24

