# opt dreiding

cyclohexanethiol-ax

0 1
 C                  0.28768750   -1.68550000   -0.39721875
 C                  1.70968750   -1.10750000   -0.38621875
 C                  1.67668750    0.42650000   -0.41021875
 C                 -0.53231250   -1.14950000    0.78478125
 C                  0.86468750    0.97850000    0.77178125
 C                 -0.55031250    0.38550000    0.85578125
 H                  0.33268750   -2.79950000   -0.35121875
 H                 -0.21231250   -1.42650000   -1.36021875
 H                  2.28268750   -1.48950000   -1.26621875
 H                  2.24568750   -1.45450000    0.52878125
 H                  1.23768750    0.77550000   -1.37421875
 H                  2.71868750    0.82750000   -0.37121875
 H                 -0.07731250   -1.53750000    1.72778125
 H                 -1.57331250   -1.55150000    0.74978125
 H                  0.81968750    2.09250000    0.72478125
 H                  1.40668750    0.72450000    1.71378125
 H                 -1.03231250    0.70950000    1.81078125
 S                 -1.62231250    1.07850000   -0.57121875
 H                 -2.92831250    0.78550000   -0.70521875

 1 2 1.0 4 1.0 7 1.0 8 1.0
 2 3 1.0 9 1.0 10 1.0
 3 5 1.0 11 1.0 12 1.0
 4 6 1.0 13 1.0 14 1.0
 5 6 1.0 15 1.0 16 1.0
 6 17 1.0
 7
 8
 9
 10
 11
 12
 13
 14
 15
 16
 17
 18 19 1.0
 19

