# opt dreiding

Me3SiO-cycl-eq

0 1
 C                 -2.60682292    1.11484375   -0.63795833
 C                 -2.32882292    2.62084375   -0.72795833
 C                 -1.28082292    3.03884375    0.31204167
 C                 -1.31582292    0.30084375   -0.80895833
 C                  0.01217708    2.23084375    0.13404167
 C                 -0.25582292    0.71784375    0.22604167
 O                  0.97517708    0.05284375    0.01404167
 Si                 1.24517708   -1.54115625    0.23304167
 C                  3.06217708   -1.73315625    0.70204167
 C                  0.17117708   -2.22115625    1.61604167
 C                  0.92717708   -2.47615625   -1.36695833
 H                 -3.06382292    0.88084375    0.35304167
 H                 -3.34882292    0.81884375   -1.41795833
 H                 -1.96082292    2.87184375   -1.75095833
 H                 -3.27382292    3.19384375   -0.56795833
 H                 -1.06382292    4.13084375    0.21704167
 H                 -1.68582292    2.87384375    1.33904167
 H                 -1.56482292   -0.78015625   -0.70295833
 H                 -0.91282292    0.45284375   -1.83895833
 H                  0.46217708    2.46784375   -0.85895833
 H                  0.75417708    2.53284375    0.91104167
 H                 -0.61582292    0.48584375    1.25904167
 H                  3.27317708   -2.81615625    0.84704167
 H                  3.68317708   -1.32115625   -0.12495833
 H                  3.24317708   -1.17015625    1.64504167
 H                  0.43617708   -3.29215625    1.76404167
 H                  0.37917708   -1.64115625    2.54304167
 H                 -0.89782292   -2.12815625    1.32504167
 H                  1.20817708   -3.54115625   -1.20695833
 H                 -0.14982292   -2.40115625   -1.63195833
 H                  1.55717708   -2.02615625   -2.16695833

 1 2 1.0 4 1.0 12 1.0 13 1.0
 2 3 1.0 14 1.0 15 1.0
 3 5 1.0 16 1.0 17 1.0
 4 6 1.0 18 1.0 19 1.0
 5 6 1.0 20 1.0 21 1.0
 6 7 1.0 22 1.0
 7 8 2.0
 8 9 1.0 10 1.0 11 1.0
 9 23 1.0 24 1.0 25 1.0
 10 26 1.0 27 1.0 28 1.0
 11 29 1.0 30 1.0 31 1.0
 12
 13
 14
 15
 16
 17
 18
 19
 20
 21
 22
 23
 24
 25
 26
 27
 28
 29
 30
 31

