# opt dreiding

phenylcyclohexane-ax

0 1
 C                  0.34446591   -1.34913636   -1.56131818
 C                  1.29946591   -1.96113636   -0.52831818
 C                  2.66246591   -1.25713636   -0.58131818
 C                  0.10646591    0.15386364   -1.29831818
 C                  2.49646591    0.25186364   -0.35431818
 C                  1.47946591    0.85786364   -1.33531818
 H                 -0.60753409   -1.92713636   -1.58631818
 H                  0.79046591   -1.47813636   -2.57731818
 H                  1.43246591   -3.05113636   -0.72931818
 H                  3.13546591   -1.43413636   -1.57731818
 H                 -0.49553409    0.55986364   -2.14831818
 C                 -0.75553409    0.40786364   -0.06531818
 H                  3.48346591    0.76186364   -0.46831818
 H                  1.90246591    0.75386364   -2.36331818
 H                  1.37446591    1.95686364   -1.17731818
 H                  3.34746591   -1.68813636    0.18668182
 C                 -1.99753409   -0.23213636    0.05868182
 C                 -0.41553409    1.32186364    0.94168182
 C                 -1.23553409    1.53286364    2.05268182
 C                 -2.82753409   -0.03113636    1.16268182
 C                 -2.44353409    0.84786364    2.17368182
 H                  0.86146591   -1.86613636    0.49368182
 H                  2.17646591    0.41686364    0.69968182
 H                 -2.35653409   -0.90613636   -0.73431818
 H                  0.50646591    1.91886364    0.88668182
 H                 -0.93653409    2.25586364    2.83068182
 H                 -3.79653409   -0.55413636    1.22868182
 H                 -3.09953409    1.02086364    3.04468182

 1 2 1.0 4 1.0 7 1.0 8 1.0
 2 3 1.0 9 1.0 22 1.0
 3 5 1.0 10 1.0 16 1.0
 4 6 1.0 11 1.0 12 1.0
 5 6 1.0 13 1.0 23 1.0
 6 14 1.0 15 1.0
 7
 8
 9
 10
 11
 12 17 1.5 18 1.5
 13
 14
 15
 16
 17 20 1.5 24 1.0
 18 19 1.5 25 1.0
 19 21 1.5 26 1.0
 20 21 1.5 27 1.0
 21 28 1.0
 22
 23
 24
 25
 26
 27
 28

