# opt dreiding

t-butylcyclohexane-eq

0 1
 C                  0.85268750   -2.14140000   -0.98852500
 C                  2.27268750   -1.60640000   -0.76552500
 C                  2.30368750   -0.09040000   -0.98852500
 C                 -0.15431250   -1.42640000   -0.07452500
 C                  1.29268750    0.62060000   -0.07452500
 C                 -0.14631250    0.10360000   -0.28252500
 H                  0.83068750   -3.24140000   -0.79452500
 H                  0.56168750   -1.99340000   -2.05552500
 H                  2.98668750   -2.11140000   -1.45952500
 H                  2.60268750   -1.84040000    0.27547500
 H                  2.06668750    0.13560000   -2.05552500
 H                  3.33268750    0.29760000   -0.79452500
 H                  0.09368750   -1.66740000    0.98547500
 H                 -1.16131250   -1.85440000   -0.28452500
 H                  1.36068750    1.71260000   -0.28452500
 H                  1.60268750    0.46760000    0.98547500
 H                 -0.39231250    0.27760000   -1.35852500
 C                 -1.23031250    0.86960000    0.53847500
 C                 -2.64531250    0.35060000    0.18847500
 C                 -1.21231250    2.37760000    0.18847500
 C                 -1.03231250    0.72960000    2.06247500
 H                 -3.43931250    0.96960000    0.66547500
 H                 -2.82631250    0.37060000   -0.91052500
 H                 -2.81731250   -0.68840000    0.54747500
 H                 -2.06031250    2.91960000    0.66547500
 H                 -0.29031250    2.88560000    0.54747500
 H                 -1.29131250    2.54160000   -0.91052500
 H                 -1.81931250    1.28660000    2.62047500
 H                 -1.09231250   -0.32940000    2.39647500
 H                 -0.05331250    1.13960000    2.39647500

 1 2 1.0 4 1.0 7 1.0 8 1.0
 2 3 1.0 9 1.0 10 1.0
 3 5 1.0 11 1.0 12 1.0
 4 6 1.0 13 1.0 14 1.0
 5 6 1.0 15 1.0 16 1.0
 6 17 1.0 18 1.0
 7
 8
 9
 10
 11
 12
 13
 14
 15
 16
 17
 18 19 1.0 20 1.0 21 1.0
 19 22 1.0 23 1.0 24 1.0
 20 25 1.0 26 1.0 27 1.0
 21 28 1.0 29 1.0 30 1.0
 22
 23
 24
 25
 26
 27
 28
 29
 30

