# opt dreiding

trans1,2dimethylcycloh-ax,ax

0 1
 C                 -1.05828125   -1.05951562    0.31665625
 C                 -1.00428125    0.47848437    0.38565625
 C                  0.44971875    0.99748437    0.43565625
 C                 -0.20428125   -1.63051562   -0.82434375
 C                  1.30971875    0.38948437   -0.68934375
 C                  1.24671875   -1.14351563   -0.72034375
 C                 -1.80528125    1.12348438   -0.76134375
 C                  1.09171875    0.77548438    1.81865625
 H                 -0.69728125   -1.48851563    1.28065625
 H                 -2.11528125   -1.39951563    0.20465625
 H                 -1.51728125    0.79448438    1.32865625
 H                  0.42771875    2.10548438    0.28665625
 H                 -0.23128125   -2.74651562   -0.79534375
 H                 -0.63128125   -1.32851563   -1.80934375
 H                  0.96271875    0.78148438   -1.67434375
 H                  2.36971875    0.72248437   -0.58134375
 H                  1.83771875   -1.52851563   -1.58634375
 H                  1.71871875   -1.56351562    0.19865625
 H                 -1.82928125    2.23248437   -0.66234375
 H                 -1.37928125    0.88848437   -1.76134375
 H                 -2.86328125    0.77248438   -0.75934375
 H                  0.50871875    1.28248437    2.62065625
 H                  1.15871875   -0.30151563    2.08865625
 H                  2.12571875    1.19148437    1.85365625

 1 2 1.0 4 1.0 9 1.0 10 1.0
 2 3 1.0 7 1.0 11 1.0
 3 5 1.0 8 1.0 12 1.0
 4 6 1.0 13 1.0 14 1.0
 5 6 1.0 15 1.0 16 1.0
 6 17 1.0 18 1.0
 7 19 1.0 20 1.0 21 1.0
 8 22 1.0 23 1.0 24 1.0
 9
 10
 11
 12
 13
 14
 15
 16
 17
 18
 19
 20
 21
 22
 23
 24

