# opt uff

aminocyclohexane-eq

0 1
 C                 -0.06807143   -1.50071429   -0.86533929
 C                  1.37292857   -0.96971429   -0.88333929
 C                  1.38992857    0.56628571   -0.86833929
 C                 -0.83707143   -0.95871429    0.34866071
 C                  0.62192857    1.11128571    0.34466071
 C                 -0.81907143    0.57828571    0.36466071
 H                 -0.06107143   -2.61771429   -0.84233929
 H                 -0.58907143   -1.19571429   -1.80333929
 H                  1.90692857   -1.34671429   -1.78833929
 H                  1.92292857   -1.35571429    0.00766071
 H                  0.92492857    0.95228571   -1.80733929
 H                  2.44392857    0.93428571   -0.84833929
 H                 -0.37207143   -1.34671429    1.28566071
 H                 -1.89007143   -1.32771429    0.32566071
 H                  0.61592857    2.22728571    0.31966071
 H                  1.14592857    0.80628571    1.28166071
 H                 -1.36207143    0.95928571   -0.53333929
 N                 -1.51607143    1.07128571    1.52866071
 H                 -2.48707143    0.76128571    1.52966071
 H                 -1.55007143    2.09028571    1.52666071

 1 2 1.0 4 1.0 7 1.0 8 1.0
 2 3 1.0 9 1.0 10 1.0
 3 5 1.0 11 1.0 12 1.0
 4 6 1.0 13 1.0 14 1.0
 5 6 1.0 15 1.0 16 1.0
 6 17 1.0 18 1.0
 7
 8
 9
 10
 11
 12
 13
 14
 15
 16
 17
 18 19 1.0 20 1.0
 19
 20

