# opt uff

cyclohexylmethylketone-ax

0 1
 C                  0.04215714   -1.37978571   -0.87281429
 C                  0.63415714   -1.79478571    0.48318571
 C                  1.90215714   -0.99078571    0.80418571
 C                 -0.23584286    0.13421429   -0.94681429
 C                  1.62315714    0.51721429    0.73918571
 C                  1.06215714    0.90321429   -0.63581429
 H                 -0.88884286   -1.95978571   -1.08181429
 H                  0.76715714   -1.65578571   -1.67581429
 H                  0.87015714   -2.88678571    0.47518571
 H                 -0.11584286   -1.63578571    1.29318571
 H                  2.70215714   -1.25278571    0.07118571
 H                  2.28315714   -1.26578571    1.81718571
 H                 -0.54884286    0.37721429   -1.99181429
 C                 -1.41984286    0.57621429   -0.08881429
 H                  2.56515714    1.08421429    0.93818571
 H                  0.89715714    0.80021429    1.53718571
 H                  1.82415714    0.66721429   -1.41681429
 H                  0.90015714    2.00521429   -0.69281429
 C                 -1.72884286    2.06021429   -0.00381429
 O                 -2.13684286   -0.21978571    0.47418571
 H                 -2.75484286    2.23121429    0.39418571
 H                 -1.00984286    2.56521429    0.68018571
 H                 -1.67184286    2.53021429   -1.01181429

 1 2 1.0 4 1.0 7 1.0 8 1.0
 2 3 1.0 9 1.0 10 1.0
 3 5 1.0 11 1.0 12 1.0
 4 6 1.0 13 1.0 14 1.0
 5 6 1.0 15 1.0 16 1.0
 6 17 1.0 18 1.0
 7
 8
 9
 10
 11
 12
 13
 14 19 1.0 20 2.0
 15
 16
 17
 18
 19 21 1.0 22 1.0 23 1.0
 20
 21
 22
 23

