# opt uff

hydroxycyclohexane-ax

0 1
 C                 -0.05071429   -1.48908929   -0.55330357
 C                  1.38528571   -0.94708929   -0.55830357
 C                  1.39028571    0.58791071   -0.54330357
 C                 -0.83671429   -0.95308929    0.65269643
 C                  0.61728571    1.12691071    0.66869643
 C                 -0.81871429    0.58291071    0.71169643
 H                 -0.03471429   -2.60608929   -0.52930357
 H                 -0.56271429   -1.19508929   -1.49930357
 H                  1.93028571   -1.32008929   -1.45830357
 H                  1.93128571   -1.32908929    0.33669643
 H                  0.92928571    0.97191071   -1.48430357
 H                  2.44228571    0.96391071   -0.52030357
 H                 -0.38471429   -1.35708929    1.58969643
 H                 -1.89071429   -1.31908929    0.61569643
 H                  0.60128571    2.24291071    0.64769643
 H                  1.14828571    0.82691071    1.60369643
 H                 -1.33071429    0.93091071    1.64369643
 O                 -1.55571429    1.11091071   -0.37030357
 H                 -2.45371429    0.85191071   -0.25230357

 1 2 1.0 4 1.0 7 1.0 8 1.0
 2 3 1.0 9 1.0 10 1.0
 3 5 1.0 11 1.0 12 1.0
 4 6 1.0 13 1.0 14 1.0
 5 6 1.0 15 1.0 16 1.0
 6 17 1.0 18 1.0
 7
 8
 9
 10
 11
 12
 13
 14
 15
 16
 17
 18 19 1.0
 19

