# opt uff

isopropylcyclohexane-ax

0 1
 C                  0.54145833   -1.93551389   -0.35680556
 C                  1.98045833   -1.40051389   -0.35880556
 C                  2.00545833    0.13548611   -0.35680556
 C                 -0.26354167   -1.33651389    0.80619444
 C                  1.17245833    0.69348611    0.80619444
 C                 -0.29254167    0.20648611    0.76519444
 H                  0.55545833   -3.04851389   -0.27380556
 H                  0.04745833   -1.69751389   -1.32780556
 H                  2.53345833   -1.79151389   -1.24580556
 H                  2.51145833   -1.77551389    0.54819444
 H                  1.61645833    0.52148611   -1.32780556
 H                  3.05945833    0.49248611   -0.27380556
 H                  0.20645833   -1.66651389    1.76319444
 H                 -1.29154167   -1.76351389    0.82619444
 H                  1.23245833    1.80548611    0.82619444
 H                  1.63945833    0.36148611    1.76319444
 H                 -0.78554167    0.55548611    1.70519444
 C                 -1.12654167    0.79648611   -0.40180556
 C                 -1.14254167    2.33848611   -0.38880556
 C                 -2.58554167    0.29748611   -0.38880556
 H                 -0.68154167    0.48148611   -1.37480556
 H                 -1.81154167    2.74548611   -1.18080556
 H                 -1.50354167    2.72848611    0.59019444
 H                 -0.13754167    2.77248611   -0.59080556
 H                 -3.19254167    0.79248611   -1.18080556
 H                 -2.65954167   -0.79451389   -0.59080556
 H                 -3.07354167    0.50848611    0.59019444

 1 2 1.0 4 1.0 7 1.0 8 1.0
 2 3 1.0 9 1.0 10 1.0
 3 5 1.0 11 1.0 12 1.0
 4 6 1.0 13 1.0 14 1.0
 5 6 1.0 15 1.0 16 1.0
 6 17 1.0 18 1.0
 7
 8
 9
 10
 11
 12
 13
 14
 15
 16
 17
 18 19 1.0 20 1.0 21 1.0
 19 22 1.0 23 1.0 24 1.0
 20 25 1.0 26 1.0 27 1.0
 21
 22
 23
 24
 25
 26
 27

