# opt uff

me_cyclohexanecarboxylate-eq

0 1
 C                 -0.33606410   -1.51197436    0.46776923
 C                  0.31593590   -1.93297436    1.79276923
 C                  1.78793590   -1.49897436    1.83876923
 C                 -0.22006410    0.00702564    0.24676923
 C                  1.91393590    0.01502564    1.62076923
 C                  1.25593590    0.43802564    0.29876923
 H                 -1.41006410   -1.81697436    0.46676923
 H                  0.16293590   -2.05397436   -0.37123077
 H                  0.24193590   -3.03997436    1.91976923
 H                 -0.23706410   -1.46897436    2.64476923
 H                  2.35993590   -2.03797436    1.04676923
 H                  2.23793590   -1.78197436    2.82076923
 H                 -0.77706410    0.51502564    1.07076923
 C                 -0.86506410    0.44502564   -1.05923077
 H                  2.99093590    0.31002564    1.62176923
 H                  1.42693590    0.55502564    2.46776923
 H                  1.80693590   -0.02397436   -0.55423077
 H                  1.33993590    1.54502564    0.18276923
 O                 -1.17706410   -0.28697436   -1.96823077
 O                 -1.05706410    1.77602564   -1.04423077
 C                 -1.65906410    2.34702564   -2.18023077
 H                 -1.73306410    3.44102564   -1.98923077
 H                 -2.68306410    1.92602564   -2.31223077
 H                 -1.01506410    2.17002564   -3.07223077

 1 2 1.0 4 1.0 7 1.0 8 1.0
 2 3 1.0 9 1.0 10 1.0
 3 5 1.0 11 1.0 12 1.0
 4 6 1.0 13 1.0 14 1.0
 5 6 1.0 15 1.0 16 1.0
 6 17 1.0 18 1.0
 7
 8
 9
 10
 11
 12
 13
 14 19 2.0 20 1.0
 15
 16
 17
 18
 19
 20 21 1.0
 21 22 1.0 23 1.0 24 1.0
 22
 23
 24

