# opt uff

t-butylcyclohexane-ax

0 1
 C                  0.78618750   -2.09328750   -0.04518750
 C                  2.20318750   -1.55828750    0.18581250
 C                  2.23618750   -0.04328750   -0.04518750
 C                 -0.22881250   -1.38028750    0.85981250
 C                  1.22518750    0.67571250    0.85981250
 C                 -0.22981250    0.16271250    0.76181250
 H                  0.76618750   -3.19228750    0.15781250
 H                  0.51418750   -1.97328750   -1.11718750
 H                  2.92318750   -2.06728750   -0.50018750
 H                  2.52618750   -1.78628750    1.22981250
 H                  2.03118750    0.17271250   -1.11718750
 H                  3.26518750    0.34171250    0.15781250
 H                  0.03418750   -1.65928750    1.90881250
 H                 -1.24281250   -1.80828750    0.69581250
 H                  1.29118750    1.77471250    0.69581250
 H                  1.57518750    0.52071250    1.90881250
 H                 -0.70981250    0.50271250    1.71281250
 C                 -1.15681250    0.81771250   -0.31318750
 C                 -1.18681250    2.35771250   -0.13418750
 C                 -2.61781250    0.33271250   -0.13418750
 C                 -0.75481250    0.53371250   -1.77218750
 H                 -1.94981250    2.83371250   -0.79118750
 H                 -1.43381250    2.64571250    0.91281250
 H                 -0.21981250    2.83671250   -0.40518750
 H                 -3.32181250    0.89371250   -0.79118750
 H                 -2.74781250   -0.73828750   -0.40518750
 H                 -2.97281250    0.46971250    0.91281250
 H                 -1.45381250    1.02771250   -2.48418750
 H                  0.25718750    0.92571250   -2.01018750
 H                 -0.78681250   -0.55128750   -2.01018750

 1 2 1.0 4 1.0 7 1.0 8 1.0
 2 3 1.0 9 1.0 10 1.0
 3 5 1.0 11 1.0 12 1.0
 4 6 1.0 13 1.0 14 1.0
 5 6 1.0 15 1.0 16 1.0
 6 17 1.0 18 1.0
 7
 8
 9
 10
 11
 12
 13
 14
 15
 16
 17
 18 19 1.0 20 1.0 21 1.0
 19 22 1.0 23 1.0 24 1.0
 20 25 1.0 26 1.0 27 1.0
 21 28 1.0 29 1.0 30 1.0
 22
 23
 24
 25
 26
 27
 28
 29
 30

