# opt uff

trimethylsilylcyclohexane-eq

0 1
 C                  1.06280682   -2.29561364   -1.15498864
 C                  2.47980682   -1.75361364   -0.92798864
 C                  2.51880682   -0.23661364   -1.15598864
 C                  0.04880682   -1.58061364   -0.24998864
 C                  1.50680682    0.48038636   -0.24998864
 C                  0.08180682   -0.05761364   -0.46798864
 H                  1.04080682   -3.39461364   -0.95798864
 H                  0.77480682   -2.15061364   -2.22398864
 H                  3.19780682   -2.26161364   -1.61598864
 H                  2.80480682   -1.98261364    0.11501136
 H                  2.28580682   -0.01361364   -2.22398864
 H                  3.54780682    0.15038636   -0.95798864
 H                  0.28580682   -1.81361364    0.81501136
 H                 -0.97019318   -1.98361364   -0.45898864
 H                  1.54680682    1.57638636   -0.45898864
 H                  1.80480682    0.33538636    0.81501136
 H                 -0.21819318    0.15438636   -1.52198864
 Si                -1.21319318    0.85738636    0.58401136
 C                 -0.85719318    0.60638636    2.41601136
 C                 -1.16119318    2.70038636    0.18901136
 C                 -2.93219318    0.19438636    0.18901136
 H                 -1.63119318    1.15338636    2.99801136
 H                 -0.90219318   -0.48261364    2.64001136
 H                  0.15480682    1.01138636    2.64001136
 H                 -1.96819318    3.20238636    0.76801136
 H                 -0.16719318    3.10238636    0.48501136
 H                 -1.32719318    2.82838636   -0.90398864
 H                 -3.67519318    0.78838636    0.76801136
 H                 -3.10919318    0.30838636   -0.90398864
 H                 -2.98019318   -0.87661364    0.48501136

 1 2 1.0 4 1.0 7 1.0 8 1.0
 2 3 1.0 9 1.0 10 1.0
 3 5 1.0 11 1.0 12 1.0
 4 6 1.0 13 1.0 14 1.0
 5 6 1.0 15 1.0 16 1.0
 6 17 1.0 18 1.0
 7
 8
 9
 10
 11
 12
 13
 14
 15
 16
 17
 18 19 1.0 20 1.0 21 1.0
 19 22 1.0 23 1.0 24 1.0
 20 25 1.0 26 1.0 27 1.0
 21 28 1.0 29 1.0 30 1.0
 22
 23
 24
 25
 26
 27
 28
 29
 30

