# opt uff

noradrenaline-C

1 1
 C                 -1.40231868   -2.33536264   -1.06695604
 C                 -1.36831868   -1.63136264    0.29604396
 H                 -2.40031868   -1.28236264    0.54904396
 O                 -1.02631868   -2.56336264    1.30004396
 C                 -0.44531868   -0.43036264    0.29504396
 N                 -0.01031868   -2.79336264   -1.36795604
 H                 -2.07631868   -3.22236264   -1.04895604
 H                 -1.73431868   -1.64236264   -1.87495604
 C                  0.89368132   -0.52236264    0.68604396
 C                  1.71468132    0.60463736    0.66404396
 C                  1.23668132    1.85263736    0.25104396
 C                 -0.10231868    1.96063736   -0.15095604
 C                 -0.91231868    0.81963736   -0.12395604
 O                 -0.60631868    3.15663736   -0.56695604
 O                  2.04968132    2.94563736    0.23404396
 H                  0.11668132    3.75863736   -0.53295604
 H                  2.92468132    2.61563736    0.33204396
 H                 -0.96731868   -2.09436264    2.11504396
 H                  0.04568132   -3.30236264   -2.27595604
 H                  0.66068132   -1.99736264   -1.42695604
 H                  0.35468132   -3.44036264   -0.63595604
 H                  1.31868132   -1.48636264    1.00904396
 H                  2.76768132    0.50963736    0.97804396
 H                 -1.96131868    0.91763736   -0.45095604

 1 2 1.0 6 1.0 7 1.0 8 1.0
 2 3 1.0 4 1.0 5 1.0
 3
 4 18 1.0
 5 9 1.5 13 1.5
 6 19 1.0 20 1.0 21 1.0
 7
 8
 9 10 1.5 22 1.0
 10 11 1.5 23 1.0
 11 12 1.5 15 1.0
 12 13 1.5 14 1.0
 13 24 1.0
 14 16 1.0
 15 17 1.0
 16
 17
 18
 19
 20
 21
 22
 23
 24

