$RunGaus
%mem=8000Mb
%nproc=8
# mp2/cc-pVTZ

3,3-Dimethil-N-methylpyrrolidine-lp.hin

0  1
C           0.85996        -0.15922         0.50751
C           0.05067        -1.40581         0.07967
C          -1.29417        -0.84804        -0.42299
C           0.02074         0.99389        -0.07846
N          -1.34166         0.51876         0.06363
C          -2.32410         1.34460        -0.60963
H          -0.09544        -2.10975         0.93210
H           0.56240        -1.97191        -0.73385
C           2.29341        -0.16087        -0.04549
C           0.90250        -0.05296         2.04555
H          -2.16819        -1.43380        -0.05065
H          -1.30902        -0.86283        -1.53984
H           0.26658         1.14536        -1.15673
H           0.17769         1.95808         0.45983
H          -2.12087         1.41928        -1.70314
H          -3.34420         0.91950        -0.46456
H          -2.31863         2.37211        -0.17778
Xx         -1.47912         0.50762         0.64978
H           2.30364        -0.23829        -1.15667
H           2.87467        -1.02150         0.35722
H           2.82785         0.77661         0.23058
H           1.45600        -0.91044         2.49206
H          -0.11945        -0.04329         2.48889
H           1.41660         0.88049         2.36981



