$RunGaus
%mem=8000Mb
%nproc=8
# mp2/cc-pVTZ

3,3-diMe-N-Me-azetidine-lp.hin

0  1
C          -1.69538        -0.24790         0.01523
C          -1.64977         1.28771        -0.22933
C          -0.17398        -0.23991        -0.30924
N          -0.23652         1.15582         0.12317
C          -2.55613        -1.02740        -0.97966
C          -2.00212        -0.62044         1.47217
C           0.66573         2.06258        -0.54804
H          -2.22171         1.91331         0.49478
H          -1.80828         1.56843        -1.29775
H           0.04471        -0.34964        -1.39809
H           0.46765        -0.87051         0.34916
H          -2.32756        -0.75146        -2.03408
H          -2.38279        -2.12207        -0.87152
H          -3.63673        -0.82407        -0.80363
H          -3.06946        -0.41025         1.71048
H          -1.81818        -1.70545         1.64276
H          -1.37780        -0.05541         2.20121
H           0.55600         2.01445        -1.65617
H           0.46311         3.10667        -0.21545
H           1.71782         1.80802        -0.28328
Xx         -0.16196         1.19663         0.71989

