$RunGaus
%mem=8000Mb
%nproc=8
# mp2/cc-pVTZ

3,3-diMe-N-Me-azetidine-NI.hin

0  1
C          -1.68447        -0.23841         0.03326
C          -1.71661         1.31419        -0.15733
C          -0.14681        -0.31146        -0.24635
N          -0.31659         1.10538        -0.38478
C          -2.51409        -0.98189        -1.01960
C          -2.04718        -0.66675         1.45979
C           0.67675         2.08122        -0.69390
H          -1.89563         1.91168         0.76573
H          -2.22655         1.67928        -1.07804
H           0.14861        -0.78037        -1.21273
H           0.49332        -0.56224         0.63025
H          -2.24649        -0.66696        -2.05406
H          -2.34815        -2.08067        -0.94572
H          -3.60041        -0.78373        -0.87482
H          -3.12114        -0.46034         1.67039
H          -1.86896        -1.75720         1.59938
H          -1.44154        -0.12364         2.22081
H           0.74162         2.20240        -1.79859
H           0.40739         3.05729        -0.23098
H           1.66558         1.75470        -0.29997

