$RunGaus
%mem=8000Mb
%nproc=8
# mp2/cc-pVTZ

ethilamine-ecl2.hin

0  1
C           0.37253        -0.81553         0.01742
C           0.34759         0.72109         0.03173
N          -0.99568         1.24802         0.07182
H          -1.13227         1.83854         0.89152
H          -1.17499         1.85292        -0.72894
Xx         -1.40284         0.80738         0.07864
H          -0.65089        -1.25547         0.04049
H           0.87647        -1.20480        -0.89749
H           0.92372        -1.22072         0.89751
H           0.90058         1.11290         0.91761
H           0.85329         1.12882        -0.87498

