$RunGaus
%mem=8000Mb
%nproc=8
# mp2/cc-pVTZ

N-Methylo piperidine ch-ax.hin

0  1
C          -2.49487        -0.57910        -0.93802
C          -2.49588         0.95467        -0.93774
C          -1.75720        -1.10388         0.30009
C          -1.06361         1.49050        -0.78306
C          -0.35918        -0.47261         0.39733
N          -0.36175         0.98527         0.39065
C          -0.88803         1.54071         1.62847
H          -1.98087        -0.94773        -1.85780
H          -3.54028        -0.97037        -0.96487
H          -3.14785         1.33361        -0.11641
H          -2.94099         1.33090        -1.89032
H          -1.66842        -2.21556         0.24221
H          -2.35187        -0.88466         1.21746
H          -1.07235         2.60675        -0.76836
H          -0.47954         1.20814        -1.69193
H           0.25114        -0.82818        -0.46753
H           0.16689        -0.84671         1.30816
H          -1.95102         1.26827         1.80991
H          -0.28589         1.18777         2.49744
H          -0.81167         2.65259         1.61661
Xx          0.21162         1.16468         0.34686

