$RunGaus
%mem=8000Mb
%nproc=8
# mp2/cc-pVTZ

N-Methylo piperidine-sofa-eq.hin

0  1
C          -2.48133        -0.57957        -0.94689
C          -2.48133         0.95321        -0.93404
C          -1.74693        -1.09340         0.29657
C          -1.04760         1.48946        -0.80410
C          -0.34034        -0.48153         0.38103
N          -0.38198         0.97518         0.38595
C           0.95638         1.53347         0.51571
H          -1.96638        -0.94758        -1.86624
H          -3.52723        -0.96976        -0.97165
H          -3.09258         1.31849        -0.07419
H          -2.95672         1.34331        -1.86618
H          -1.68241        -2.20791         0.26914
H          -2.32563        -0.81884         1.21097
H          -1.09041         2.60439        -0.75745
H          -0.46718         1.21740        -1.71834
H           0.27349        -0.84670        -0.47721
H           0.14765        -0.84580         1.31712
H           1.60522         1.24866        -0.34514
H           0.91209         2.64572         0.57469
H           1.43828         1.17934         1.45642
Xx         -0.70056         1.14959         0.86611

