$RunGaus
%mem=8000Mb
%nproc=8
# mp2/cc-pVTZ

N-Methylazetidine-lp.hin

0  1
N          -0.42665         0.66531        -0.71671
C          -1.66232        -0.68723         0.16143
C          -1.88627         0.60579        -0.66990
C          -0.28208        -0.77899        -0.54546
H          -2.36205        -1.52007        -0.08596
H          -1.58261        -0.49623         1.25932
H          -2.33699         1.46369        -0.11784
H          -0.32809        -1.34401        -1.50752
H           0.57884        -1.05333         0.10835
Xx         -0.21150         0.95781        -0.23526
C           0.14244         1.21600        -1.92494
H          -2.35155         0.40268        -1.66449
H          -0.23473         0.69716        -2.83645
H           1.25218         1.11927        -1.89405
H          -0.11334         2.29802        -1.99998

