$RunGaus
%mem=8000Mb
%nproc=8
# mp2/cc-pVTZ

N-Methylo piperidine ch-NI.hin

0  1
C          -2.48220        -0.60277        -0.90741
C          -2.51372         0.92530        -0.79683
C          -1.57847        -1.15874         0.19818
C          -1.10074         1.51126        -0.90968
C          -0.16188        -0.58084         0.08910
N          -0.15059         0.85505        -0.04559
C           0.82406         1.63515         0.67245
H          -2.09300        -0.90604        -1.90845
H          -3.51389        -1.01833        -0.80810
H          -2.95696         1.21609         0.18571
H          -3.17037         1.35439        -1.59163
H          -1.54235        -2.27336         0.14042
H          -2.00875        -0.89676         1.19449
H          -1.14153         2.60348        -0.68625
H          -0.73107         1.40022        -1.95593
H           0.34750        -1.00330        -0.80849
H           0.42775        -0.89327         0.98312
H           1.76416         1.05681         0.82086
H           1.09028         2.55657         0.10641
H           0.40734         1.92069         1.66482

