# opt dreiding

1,2-ethanediol-a,a,a

0 1
 C                 -0.02352941   -0.76600000   -0.00408824
 C                  0.02347059    0.76600000    0.00391176
 O                  1.29247059   -1.27000000    0.00091176
 O                 -1.29252941    1.27000000   -0.00108824
 H                 -0.54552941   -1.16100000    0.90091176
 H                 -0.53552941   -1.15200000   -0.91708824
 H                  0.53547059    1.15200000    0.91791176
 H                  0.54647059    1.16100000   -0.90008824
 H                  1.23347059   -2.21000000   -0.00408824
 H                 -1.23352941    2.21000000    0.00491176

 1 2 1.0 3 1.0 5 1.0 6 1.0
 2 4 1.0 7 1.0 8 1.0
 3 9 1.0
 4 10 1.0
 5
 6
 7
 8
 9
 10

