# opt dreiding

2,5-dimethyl-1,3-dioxane-eq,ax

0 1
 C                 -1.08018750   -0.75390625    0.85623437
 C                 -1.08018750    0.78309375    0.85623437
 C                  0.38081250    1.26109375    0.85623437
 O                 -0.33018750   -1.21590625   -0.27076563
 O                  1.05381250    0.69209375   -0.27076563
 C                  1.01881250   -0.73890625   -0.19176563
 C                  1.83181250   -1.32890625   -1.35876563
 C                 -1.80018750    1.30509375   -0.40176563
 H                 -2.10418750   -1.12090625    0.78923437
 H                 -0.62318750   -1.11990625    1.77523437
 H                 -1.59018750    1.15309375    1.74623438
 H                  0.87081250    0.94009375    1.77523437
 H                  0.41181250    2.34909375    0.78923437
 H                  1.45681250   -1.05590625    0.75423437
 H                  1.38881250   -1.01990625   -2.30476562
 H                  2.85981250   -0.96890625   -1.30376563
 H                  1.82481250   -2.41690625   -1.29276563
 H                 -1.29718750    0.92709375   -1.29176563
 H                 -2.83518750    0.96309375   -0.39576563
 H                 -1.77718750    2.39509375   -0.40676563

 1 2 1.0 4 1.0 9 1.0 10 1.0
 2 3 1.0 8 1.0 11 1.0
 3 5 1.0 12 1.0 13 1.0
 4 6 1.0
 5 6 1.0
 6 7 1.0 14 1.0
 7 15 1.0 16 1.0 17 1.0
 8 18 1.0 19 1.0 20 1.0
 9
 10
 11
 12
 13
 14
 15
 16
 17
 18
 19
 20

