# opt dreiding

2-butanone-ecl

0 1
 C                  0.58752500   -1.84985000   -0.24090000
 C                  0.42052500   -0.36085000    0.00110000
 C                 -0.99147500    0.19115000   -0.12290000
 C                 -1.09247500    1.69915000    0.13410000
 O                  1.36752500    0.34015000    0.27810000
 H                  1.65252500   -2.15785000   -0.12790000
 H                 -0.02147500   -2.42785000    0.49110000
 H                  0.25752500   -2.10985000   -1.27190000
 H                 -1.36147500   -0.03485000   -1.15090000
 H                 -1.63947500   -0.35285000    0.60310000
 H                 -2.14547500    2.05015000    0.03110000
 H                 -0.75247500    1.95815000    1.16410000
 H                 -0.47447500    2.27615000   -0.59190000

 1 2 1.0 6 1.0 7 1.0 8 1.0
 2 3 1.0 5 2.0
 3 4 1.0 9 1.0 10 1.0
 4 11 1.0 12 1.0 13 1.0
 5
 6
 7
 8
 9
 10
 11
 12
 13

