# opt dreiding

2-keto cyclodecanone

0 1
 C                 -0.77969767   -2.01732558    1.47804651
 C                 -0.75769767   -0.52032558    1.83404651
 C                 -0.18569767   -2.45732558    0.12404651
 C                  0.62630233    0.14467442    1.77004651
 C                 -0.88469767   -1.99632558   -1.17095349
 C                 -0.87569767   -0.49532558   -1.51495349
 C                  0.59630233    1.65567442    1.48404651
 C                  0.51730233    0.14867442   -1.61195349
 C                 -0.01969767    2.09867442    0.14304651
 C                  0.65630233    1.58967442   -1.12795349
 O                  1.34830233    2.35267442   -1.76695349
 H                 -1.83469767   -2.38032558    1.53104651
 H                 -0.22469767   -2.55332558    2.28504651
 H                 -1.16469767   -0.38232558    2.86504651
 H                 -1.49169767    0.01067442    1.19704651
 H                 -0.22169767   -3.57532558    0.11704651
 H                  0.90330233   -2.23532558    0.08404651
 H                  1.27530233   -0.33332558    1.01004651
 H                  1.15330233   -0.04232558    2.73704651
 H                 -1.94369767   -2.34732558   -1.13695349
 H                 -0.40669767   -2.52932558   -2.02795349
 H                 -1.53269767    0.03467442   -0.79995349
 H                 -1.39669767   -0.34632558   -2.49095349
 H                  1.64330233    2.04467442    1.52804651
 H                  0.04030233    2.15267442    2.31504651
 H                  0.85530233    0.09467442   -2.67395349
 H                  1.28030233   -0.44132558   -1.06595349
 H                  0.03130233    3.21367442    0.11204651
 H                 -1.10969767    1.88967442    0.10504651

 1 2 1.0 3 1.0 12 1.0 13 1.0
 2 4 1.0 14 1.0 15 1.0
 3 5 1.0 16 1.0 17 1.0
 4 7 1.0 18 1.0 19 1.0
 5 6 1.0 20 1.0 21 1.0
 6 8 1.0 22 1.0 23 1.0
 7 9 1.0 24 1.0 25 1.0
 8 10 1.0 26 1.0 27 1.0
 9 10 1.0 28 1.0 29 1.0
 10 11 2.0
 11
 12
 13
 14
 15
 16
 17
 18
 19
 20
 21
 22
 23
 24
 25
 26
 27
 28
 29

