# opt dreiding

2-methoxytetrahydropyran-eq

0 1
 C                 -1.07043750   -1.30746875   -0.61954687
 C                 -0.80543750   -1.96446875    0.74145313
 C                  0.60356250   -1.61446875    1.23145313
 O                 -0.90543750    0.09753125   -0.53754687
 C                  0.77156250   -0.09046875    1.20845313
 C                  0.42456250    0.45253125   -0.18754688
 H                 -2.12143750   -1.50146875   -0.94354688
 H                 -0.39143750   -1.71446875   -1.40954687
 H                 -0.92143750   -3.07246875    0.66245312
 H                 -1.56043750   -1.60446875    1.48145313
 H                  1.36156250   -2.08446875    0.56045312
 H                  0.77356250   -2.01346875    2.25945313
 H                  1.81856250    0.18553125    1.47745313
 H                  0.09756250    0.37153125    1.96845312
 H                  1.14856250    0.08153125   -0.95654687
 O                  0.43656250    1.87453125   -0.14454687
 C                  0.44356250    2.46653125   -1.43254687
 H                  0.44356250    3.57353125   -1.30154687
 H                  1.36656250    2.17353125   -1.98754687
 H                 -0.46843750    2.17553125   -2.00454687

 1 2 1.0 4 1.0 7 1.0 8 1.0
 2 3 1.0 9 1.0 10 1.0
 3 5 1.0 11 1.0 12 1.0
 4 6 1.0
 5 6 1.0 13 1.0 14 1.0
 6 15 1.0 16 1.0
 7
 8
 9
 10
 11
 12
 13
 14
 15
 16 17 1.0
 17 18 1.0 19 1.0 20 1.0
 18
 19
 20

