# opt dreiding

2-methoxytetrahydropyran-ax

0 1
 C                 -1.23909375   -1.03964062    0.08207813
 C                 -0.53209375   -1.51064062    1.35807813
 C                  0.91590625   -1.00964062    1.36307813
 O                 -1.21209375    0.37435938   -0.03392187
 C                  0.90090625    0.51235938    1.19407813
 C                  0.09490625    0.93135938   -0.04692187
 H                 -2.31309375   -1.34664063    0.10607813
 H                 -0.78809375   -1.50264062   -0.82792187
 H                 -0.55309375   -2.62464062    1.41907813
 H                 -1.07209375   -1.11864062    2.25307813
 H                  1.48390625   -1.48064062    0.52607813
 H                  1.42590625   -1.29364062    2.31507813
 H                  1.94390625    0.90235938    1.12207813
 H                  0.44090625    0.97835938    2.09907813
 H                 -0.00409375    2.04635938   -0.05292187
 O                  0.75690625    0.51335938   -1.23392187
 C                  0.28490625    1.17135938   -2.39592187
 H                  0.84790625    0.76735938   -3.26992187
 H                 -0.80109375    0.97135938   -2.54892187
 H                  0.47790625    2.26835938   -2.32492187

 1 2 1.0 4 1.0 7 1.0 8 1.0
 2 3 1.0 9 1.0 10 1.0
 3 5 1.0 11 1.0 12 1.0
 4 6 1.0
 5 6 1.0 13 1.0 14 1.0
 6 15 1.0 16 1.0
 7
 8
 9
 10
 11
 12
 13
 14
 15
 16 17 1.0
 17 18 1.0 19 1.0 20 1.0
 18
 19
 20

