# opt dreiding

2-methylaminotetrahydropyran-eq

0 1
 C                 -1.10751563   -1.41489062   -0.30262500
 C                 -0.54151562   -1.95889062    1.01537500
 C                  0.91548438   -1.51389062    1.18037500
 O                 -1.01351563   -0.00089062   -0.34362500
 C                  0.98848437    0.01010938    1.02737500
 C                  0.33248437    0.45110938   -0.29262500
 H                 -2.18951562   -1.67989063   -0.39362500
 H                 -0.57851563   -1.84889063   -1.18562500
 H                 -0.60851563   -3.07289062    1.03337500
 H                 -1.15051563   -1.57589062    1.86937500
 H                  1.54748437   -1.99989062    0.39937500
 H                  1.31248437   -1.82889063    2.17537500
 H                  2.05348438    0.34310938    1.06037500
 H                  0.46348437    0.49610938    1.88437500
 H                  0.89848437    0.01310938   -1.15162500
 N                  0.40248438    1.89910937   -0.38662500
 C                 -0.10751563    2.41910938   -1.63662500
 H                  1.37448438    2.19310938   -0.28262500
 H                  0.00948437    3.52710938   -1.64262500
 H                  0.46848437    2.00610938   -2.49662500
 H                 -1.18951562    2.18510938   -1.76162500

 1 2 1.0 4 1.0 7 1.0 8 1.0
 2 3 1.0 9 1.0 10 1.0
 3 5 1.0 11 1.0 12 1.0
 4 6 1.0
 5 6 1.0 13 1.0 14 1.0
 6 15 1.0 16 1.0
 7
 8
 9
 10
 11
 12
 13
 14
 15
 16 17 1.0 18 1.0
 17 19 1.0 20 1.0 21 1.0
 18
 19
 20
 21

