# opt dreiding

2-methylaminotetrahydropyran-ax

0 1
 C                 -1.56040625   -0.91337500   -0.16957813
 C                 -1.00340625   -1.44237500    1.15842188
 C                  0.46059375   -1.02137500    1.32742187
 O                 -1.41640625    0.49562500   -0.26057812
 C                  0.55059375    0.49862500    1.14942188
 C                 -0.06040625    0.91762500   -0.19957813
 H                 -2.65240625   -1.13937500   -0.24257812
 H                 -1.06440625   -1.40137500   -1.04257812
 H                 -1.09040625   -2.55437500    1.19642187
 H                 -1.60940625   -1.03437500    2.00242188
 H                  1.09559375   -1.53237500    0.56542187
 H                  0.84059375   -1.32237500    2.33342187
 H                  1.60459375    0.84462500    1.25342187
 H                 -0.01540625    0.99462500    1.97442187
 H                 -0.09240625    2.03462500   -0.24657812
 N                  0.66659375    0.44662500   -1.36457812
 C                  2.01159375    0.96462500   -1.48857812
 H                  0.13759375    0.71362500   -2.19657812
 H                  2.42959375    0.64162500   -2.46957812
 H                  2.01159375    2.07762500   -1.46357812
 H                  2.67859375    0.56362500   -0.69257812

 1 2 1.0 4 1.0 7 1.0 8 1.0
 2 3 1.0 9 1.0 10 1.0
 3 5 1.0 11 1.0 12 1.0
 4 6 1.0
 5 6 1.0 13 1.0 14 1.0
 6 15 1.0 16 1.0
 7
 8
 9
 10
 11
 12
 13
 14
 15
 16 17 1.0 18 1.0
 17 19 1.0 20 1.0 21 1.0
 18
 19
 20
 21

