# opt dreiding

2-propanol-a

0 1
 C                  0.23405882   -1.37405882   -0.30605882
 C                  0.23405882    0.16594118   -0.30605882
 C                 -1.21794118    0.67994118   -0.30605882
 O                  0.90805882    0.64294118    0.86194118
 H                  1.26105882   -1.73705882   -0.30605882
 H                 -0.27994118   -1.73705882    0.58394118
 H                 -0.27994118   -1.73705882   -1.19605882
 H                  0.74705882    0.52994118   -1.19605882
 H                 -1.21794118    1.76994118   -0.30605882
 H                 -1.73194118    0.31594118   -1.19605882
 H                 -1.73194118    0.31594118    0.58394118
 H                  0.46805882    0.30494118    1.64594118

 1 2 1.0 5 1.0 6 1.0 7 1.0
 2 3 1.0 4 1.0 8 1.0
 3 9 1.0 10 1.0 11 1.0
 4 12 1.0
 5
 6
 7
 8
 9
 10
 11
 12

