# opt dreiding

3-keto cyclodecanone

0 1
 C                 -0.65884884   -1.86379070    1.24622093
 C                 -0.69584884   -0.36979070    1.61822093
 C                 -0.01484884   -2.26779070   -0.09477907
 C                  0.59915116    0.39920930    1.40722093
 C                 -0.74284884   -1.87479070   -1.39477907
 C                 -0.88584884   -0.37579070   -1.69877907
 C                  0.54215116    1.89020930    1.09522093
 C                  0.44215116    0.39820930   -1.74577907
 C                 -0.26684884    2.33320930   -0.13777907
 C                  0.29515116    1.91020930   -1.50977907
 H                 -1.69684884   -2.27179070    1.28222093
 H                 -0.09584884   -2.38879070    2.05622093
 H                 -0.94984884   -0.26779070    2.70022093
 H                 -1.53384884    0.13020930    1.09022093
 H                  0.04915116   -3.38379070   -0.09477907
 H                  1.04815116   -1.93979070   -0.12677907
 H                 -1.75984884   -2.33679070   -1.38077907
 H                 -0.19884884   -2.33979070   -2.25277907
 H                 -1.58484884    0.06320930   -0.95977907
 H                 -1.40584884   -0.24179070   -2.67777907
 H                  1.58415116    2.27320930    0.99022093
 H                  0.11515116    2.37620930    2.00522093
 H                  0.92215116    0.21720930   -2.73677907
 H                  1.17015116    0.01020930   -1.00477907
 H                 -0.35984884    2.32720930   -2.31177907
 H                  1.29615116    2.38820930   -1.63877907
 H                 -0.30184884    3.45020930   -0.12777907
 H                 -1.33184884    2.02620930   -0.03677907
 O                  1.66915116   -0.14579070    1.56422093

 1 2 1.0 3 1.0 11 1.0 12 1.0
 2 4 1.0 13 1.0 14 1.0
 3 5 1.0 15 1.0 16 1.0
 4 7 1.0 29 2.0
 5 6 1.0 17 1.0 18 1.0
 6 8 1.0 19 1.0 20 1.0
 7 9 1.0 21 1.0 22 1.0
 8 10 1.0 23 1.0 24 1.0
 9 10 1.0 27 1.0 28 1.0
 10 25 1.0 26 1.0
 11
 12
 13
 14
 15
 16
 17
 18
 19
 20
 21
 22
 23
 24
 25
 26
 27
 28
 29

