# opt dreiding

3-Me THP-eq

0 1
 C                 -1.40714286   -0.90592857   -0.79378571
 C                 -0.74914286   -1.48492857    0.46521429
 C                  0.67685714   -0.94192857    0.61121429
 O                 -1.41414286    0.51107143   -0.74578571
 C                  0.64085714    0.59307143    0.55921429
 C                 -0.10214286    1.04707143   -0.70878571
 H                 -2.46914286   -1.24392857   -0.86378571
 H                 -0.88214286   -1.24292857   -1.72178571
 H                 -0.73314286   -2.59992857    0.41121429
 H                 -1.35214286   -1.20592857    1.36221429
 H                  1.30885714   -1.33092857   -0.22178571
 H                  1.12985714   -1.29292857    1.56821429
 H                  0.07585714    0.96507143    1.45021429
 H                  0.44585714    0.74607143   -1.63378571
 C                  2.05785714    1.18307143    0.61021429
 H                  2.66585714    0.85007143   -0.26178571
 H                  2.59085714    0.86807143    1.53721429
 H                  2.02985714    2.29707143    0.60021429
 H                 -0.20014286    2.15907143   -0.71978571

 1 2 1.0 4 1.0 7 1.0 8 1.0
 2 3 1.0 9 1.0 10 1.0
 3 5 1.0 11 1.0 12 1.0
 4 6 1.0
 5 6 1.0 13 1.0 15 1.0
 6 14 1.0 19 1.0
 7
 8
 9
 10
 11
 12
 13
 14
 15 16 1.0 17 1.0 18 1.0
 16
 17
 18
 19

