# opt dreiding

4-Me THP-ax

0 1
 C                 -1.15441071    1.19983929    1.27935714
 H                 -1.60141071    0.84783929    2.23735714
 H                 -1.87441071    0.95883929    0.46735714
 H                 -1.07841071    2.31083929    1.33835714
 C                 -0.43741071   -1.47616071   -0.31164286
 C                  0.16558929   -0.97016071    1.00535714
 C                  0.22758929    0.56483929    1.05135714
 O                  0.29158929   -0.97816071   -1.42064286
 C                  0.89258929    1.06083929   -0.24264286
 C                  0.24758929    0.43683929   -1.48864286
 H                 -1.51341071   -1.19516071   -0.41664286
 H                 -0.38341071   -2.59116071   -0.35364286
 H                  1.19958929   -1.38016071    1.10235714
 H                 -0.41841071   -1.36016071    1.87235714
 H                  0.86658929    0.86883929    1.91735714
 H                  1.97358929    0.78183929   -0.22764286
 H                  0.81058929    0.74283929   -2.40364286
 H                 -0.80941071    0.77083929   -1.62564286
 H                  0.84658929    2.17383929   -0.30164286

 1 2 1.0 3 1.0 4 1.0 7 1.0
 2
 3
 4
 5 6 1.0 8 1.0 11 1.0 12 1.0
 6 7 1.0 13 1.0 14 1.0
 7 9 1.0 15 1.0
 8 10 1.0
 9 10 1.0 16 1.0 19 1.0
 10 17 1.0 18 1.0
 11
 12
 13
 14
 15
 16
 17
 18
 19

