#p Opt=(Modredun,nomicro) dreiding

aagtxgtx16080

0 1
 C                  3.15288600    0.01985600    0.67571400
 C                  2.60087900   -1.40611300    0.62894500
 C                  2.04719600    0.94934000    0.17623400
 O                  1.75098800    0.57644500   -1.19943900
 C                  2.12453300   -1.78581800   -0.77893000
 C                  1.18267400   -0.72330700   -1.36654600
 O                 -0.06906100   -0.84622000   -0.73806100
 C                 -1.25119400   -0.36741600   -1.43612400
 O                 -2.34787500   -1.04638100   -0.91364100
 C                 -1.43884300    1.16107000   -1.29981300
 C                 -2.66823900   -0.76899100    0.47634300
 C                 -2.85769300    0.73452000    0.69737800
 C                 -1.62352000    1.48468000    0.19219900
 H                  4.02530000    0.08983800    0.00549900
 O                  3.49188000    0.39160100    1.99861100
 H                  1.74082000   -1.45076100    1.31755800
 O                  3.62987300   -2.27913500    1.06770700
 H                  1.16110400    0.78340100    0.79677400
 C                  2.34999700    2.44277100    0.20140700
 O                  1.53403300   -3.07398600   -0.78708500
 H                  3.00539400   -1.84279700   -1.42756500
 H                  1.08027600   -0.84679000   -2.45176300
 H                 -1.16680600   -0.65327700   -2.49242200
 H                 -2.37380300    1.40259100   -1.81804500
 O                 -0.43297800    1.91005200   -1.96504200
 H                 -1.84492600   -1.12187800    1.10836000
 C                 -3.90971600   -1.59839600    0.77270100
 O                 -3.04698300    0.95469200    2.08236700
 H                 -3.73474600    1.07893400    0.12231800
 O                 -1.80638500    2.86361300    0.45995800
 H                 -0.76506600    1.10812200    0.75934300
 H                  3.09229400    2.68464500   -0.57207600
 H                  2.77993300    2.68138200    1.17640100
 O                  1.17901200    3.24711800    0.06330900
 H                 -4.73928200   -1.23826700    0.14297800
 H                 -4.18875700   -1.45261200    1.81884900
 O                 -3.66942000   -2.98130500    0.58242000
 H                 -3.34752300   -3.07221300   -0.32544700
 H                  0.42963800    1.47539900   -1.80750800
 H                 -0.91845300    3.24843600    0.54419500
 H                 -2.91430500    1.90764300    2.20604800
 H                  0.62661800   -2.95694300   -0.46260900
 H                  3.29165800   -3.18124400    0.96852600
 H                  4.01098300   -0.34068200    2.36247800
 H                  0.79122900    3.11196700   -0.81779100

 9 8 7 6 157.0 F
 8 7 6 4 83.0 F
24 10 25 39 -157.0 F