#p Opt=(Modredun,nomicro) dreiding

aagtxgtx6060

0 1
 C                 -3.54272200   -0.27594700   -0.34101100
 C                 -2.57348300   -1.04324900   -1.23624800
 C                 -2.75218700    0.65207700    0.58229000
 O                 -1.79746800   -0.12424600    1.34580400
 C                 -1.53646600   -1.79599100   -0.39875700
 C                 -0.85593800   -0.84776600    0.59677500
 O                  0.00000200    0.00001500   -0.17550900
 C                  0.85594300    0.84777800    0.59679800
 O                  1.79746100    0.12423400    1.34581800
 C                  1.53648300    1.79601800   -0.39871300
 C                  2.75216800   -0.65208900    0.58229100
 C                  3.54272400    0.27593800   -0.34098800
 C                  2.57350700    1.04328900   -1.23620700
 H                 -4.09227800   -1.00729200    0.27527000
 O                 -4.43535500    0.51524900   -1.10632000
 H                 -2.05029600   -0.31057200   -1.87379300
 O                 -3.33412200   -1.93562800   -2.03545200
 H                 -2.21576100    1.39868500   -0.01674700
 C                 -3.60536400    1.37318200    1.61853100
 O                 -0.60300700   -2.47253800   -1.22941000
 H                 -2.05213400   -2.57220700    0.17603600
 H                 -0.25311800   -1.39840500    1.32447800
 H                  0.25312000    1.39840400    1.32450700
 H                  2.05214500    2.57222600    0.17609500
 O                  0.60303200    2.47257700   -1.22936500
 H                  2.21573000   -1.39867600   -0.01676200
 C                  3.60532800   -1.37323200    1.61851900
 O                  4.43533800   -0.51526000   -1.10631800
 H                  4.09229900    1.00725500    0.27531000
 O                  3.33417600    1.93568800   -2.03536500
 H                  2.05032100    0.31064700   -1.87379300
 H                 -4.18253300    0.62875100    2.19011000
 H                 -4.31160100    2.02856900    1.10434300
 O                 -2.80994700    2.18217800    2.46669100
 H                  4.18247400   -0.62882000    2.19014400
 H                  4.31158200   -2.02859200    1.10432100
 O                  2.80989600   -2.18226900    2.46662800
 H                  2.17372900   -1.58461100    2.88359000
 H                 -0.01000200    1.79736100   -1.55716000
 H                  2.69929600    2.51299300   -2.48490800
 H                  4.80891600    0.07150600   -1.77988800
 H                  0.01002200   -1.79731700   -1.55720200
 H                 -2.69922700   -2.51294400   -2.48495900
 H                 -4.80891500   -0.07150800   -1.77990800
 H                 -2.17378000    1.58450200    2.88362700

 4 6 7 8 65.0 F
 6 7 8 9 65.0 F
 21 5 20 42 -165.0 F
