#p Opt=(Modredun,nomicro) dreiding

acetaldehyde dimethylacetal-g ecl

0 1
 C                  1.58102000   -0.12150000    1.31776000
 O                  1.15002000   -0.65950000    0.07976000
 C                 -0.23798000   -0.46350000   -0.17024000
 O                 -0.41298000    0.91050000   -0.50224000
 C                 -1.28098000    1.58350000    0.39276000
 H                  2.65602000   -0.38650000    1.44976000
 H                  1.49202000    0.98950000    1.31376000
 H                  0.99802000   -0.56450000    2.15976000
 C                 -0.63698000   -1.32450000   -1.38024000
 H                 -0.83698000   -0.77050000    0.72376000
 H                 -1.34698000    2.64950000    0.07176000
 H                 -2.29998000    1.13150000    0.34576000
 H                 -0.87998000    1.54650000    1.43276000
 H                 -0.47398000   -2.40650000   -1.17024000
 H                 -0.03998000   -1.05550000   -2.28124000
 H                 -1.71498000   -1.18550000   -1.62624000

10 3 4 5 0.0 F

