# opt dreiding

C-Et glycoside-g

0 1
 C                 -1.00138462   -0.59519231    0.32227885
 C                 -0.99138462    0.94380769    0.31527885
 C                  0.44661538    1.47480769    0.33627885
 O                 -0.23438462   -1.11319231   -0.75672115
 C                  1.23561538    0.81980769   -0.80272115
 C                  1.13061538   -0.71619231   -0.74872115
 C                 -2.42338462   -1.18219231    0.22327885
 H                 -0.56438462   -0.96419231    1.28127885
 O                 -1.66738462    1.44280769    1.45027885
 H                 -1.51938462    1.33280769   -0.58872115
 H                  0.92061538    1.26580769    1.32627885
 O                  0.44061538    2.87280769    0.15227885
 O                  2.58261538    1.22680769   -0.72772115
 H                  0.83561538    1.18380769   -1.78172115
 H                  1.55861538   -1.11019231   -1.70472115
 C                  1.93361538   -1.38119231    0.38927885
 H                  1.65761538   -0.96019231    1.38327885
 C                  1.77861538   -2.90819231    0.42227885
 H                  3.01661538   -1.14719231    0.25027885
 O                 -3.05938462   -0.73719231   -0.95372115
 H                 -2.39638462   -2.29819231    0.19527885
 H                 -1.37738462    0.95380769    2.20127885
 H                 -0.13038462    3.24380769    0.80227885
 H                  2.59361538    2.16380769   -0.83172115
 H                  2.42961538   -3.35819231    1.20627885
 H                  0.73061538   -3.21019231    0.65027885
 H                  2.06261538   -3.36219231   -0.55472115
 H                 -3.91338462   -1.13119231   -0.98272115
 H                 -3.05438462   -0.87119231    1.08927885

 1 2 1.0 4 1.0 7 1.0 8 1.0
 2 3 1.0 9 1.0 10 1.0
 3 5 1.0 11 1.0 12 1.0
 4 6 1.0
 5 6 1.0 13 1.0 14 1.0
 6 15 1.0 16 1.0
 7 20 1.0 21 1.0 29 1.0
 8
 9 22 1.0
 10
 11
 12 23 1.0
 13 24 1.0
 14
 15
 16 17 1.0 18 1.0 19 1.0
 17
 18 25 1.0 26 1.0 27 1.0
 19
 20 28 1.0
 21
 22
 23
 24
 25
 26
 27
 28
 29

