# opt dreiding

cis-2,6-DiMe-cyclOMe-anti

0 1
 C                 -1.56215000   -1.31165000   -0.52373750
 C                 -1.07815000   -1.97165000    0.77426250
 C                  0.44485000   -1.84465000    0.91426250
 C                 -1.15115000    0.17135000   -0.58473750
 C                  0.88885000   -0.36965000    0.87626250
 C                  0.37985000    0.29935000   -0.41973750
 O                  0.85285000    1.63135000   -0.58573750
 C                  0.40685000    2.56435000    0.38226250
 H                 -2.67315000   -1.40465000   -0.59373750
 H                 -1.37115000   -3.04965000    0.78426250
 H                 -1.57615000   -1.48965000    1.64926250
 H                  0.93985000   -2.40765000    0.08826250
 H                  0.76885000   -2.31765000    1.87226250
 C                 -1.64915000    0.79735000   -1.89873750
 H                 -1.65915000    0.68235000    0.26726250
 C                  2.41885000   -0.28265000    1.01526250
 H                  0.42285000    0.12935000    1.75926250
 H                  0.83885000   -0.26465000   -1.26873750
 H                  0.85385000    3.55335000    0.12526250
 H                 -0.70015000    2.67435000    0.35726250
 H                  0.75885000    2.28735000    1.40126250
 H                 -2.75015000    0.67135000   -2.01173750
 H                 -1.44315000    1.89035000   -1.94373750
 H                 -1.16015000    0.32335000   -2.78073750
 H                 -1.13415000   -1.85765000   -1.39773750
 H                  2.92885000   -0.76265000    0.14926250
 H                  2.76885000   -0.79365000    1.94126250
 H                  2.77185000    0.77235000    1.07526250

 1 2 1.0 4 1.0 9 1.0 25 1.0
 2 3 1.0 10 1.0 11 1.0
 3 5 1.0 12 1.0 13 1.0
 4 6 1.0 14 1.0 15 1.0
 5 6 1.0 16 1.0 17 1.0
 6 7 1.0 18 1.0
 7 8 1.0
 8 19 1.0 20 1.0 21 1.0
 9
 10
 11
 12
 13
 14 22 1.0 23 1.0 24 1.0
 15
 16 26 1.0 27 1.0 28 1.0
 17
 18
 19
 20
 21
 22
 23
 24
 25
 26
 27
 28

