# opt dreiding

cis-2-6-DiMe-cyclOMe-ecl

0 1
 C                 -1.74221250   -1.21196250   -0.22720000
 C                 -1.26721250   -1.82096250    1.09780000
 C                  0.25978750   -1.73896250    1.20880000
 C                 -1.27221250    0.24603750   -0.37120000
 C                  0.75178750   -0.28696250    1.08180000
 C                  0.26578750    0.33703750   -0.24720000
 O                  0.65878750    1.70603750   -0.29120000
 C                  1.51678750    2.00503750   -1.37820000
 H                 -2.85521250   -1.26296250   -0.27920000
 H                 -1.59821250   -2.88496250    1.16880000
 H                 -1.73621250   -1.27496250    1.95180000
 H                  0.72378750   -2.36296250    0.40880000
 H                  0.58178750   -2.16896250    2.18780000
 C                 -1.78021250    0.82703750   -1.70320000
 H                 -1.72721250    0.84103750    0.45880000
 C                  2.28478750   -0.24396250    1.21380000
 H                  0.31678750    0.30303750    1.92580000
 H                  0.72278750   -0.23296250   -1.09220000
 H                  1.76778750    3.09003750   -1.32920000
 H                  2.46078750    1.41503750   -1.29920000
 H                  1.00178750    1.80003750   -2.34620000
 H                 -2.88721250    0.73203750   -1.78720000
 H                 -1.54121250    1.91003750   -1.80120000
 H                 -1.32621250    0.29603750   -2.57120000
 H                 -1.34521250   -1.81796250   -1.07620000
 H                  2.77578750   -0.78496250    0.37280000
 H                  2.62078750   -0.71896250    2.16380000
 H                  2.67178750    0.80003750    1.22180000

 1 2 1.0 4 1.0 9 1.0 25 1.0
 2 3 1.0 10 1.0 11 1.0
 3 5 1.0 12 1.0 13 1.0
 4 6 1.0 14 1.0 15 1.0
 5 6 1.0 16 1.0 17 1.0
 6 7 1.0 18 1.0
 7 8 1.0
 8 19 1.0 20 1.0 21 1.0
 9
 10
 11
 12
 13
 14 22 1.0 23 1.0 24 1.0
 15
 16 26 1.0 27 1.0 28 1.0
 17
 18
 19
 20
 21
 22
 23
 24
 25
 26
 27
 28

