#p Opt=(Modredun,nomicro) dreiding

cyclohexanone-half chair

0 1
 C                 -1.17051852   -0.43837037    0.60583333
 C                 -1.09551852    1.09062963    0.63783333
 C                  0.36148148    1.55662963    0.72583333
 C                 -0.10251852   -1.12237037   -0.23016667
 C                  1.08248148    1.16962963   -0.56916667
 C                  1.05548148   -0.34237037   -0.83216667
 H                 -2.17851852   -0.76937037    0.26083333
 H                 -1.03551852   -0.82237037    1.64483333
 H                 -1.67951852    1.48062963    1.50683333
 H                 -1.56851852    1.51162963   -0.28116667
 H                  0.86748148    1.09362963    1.60583333
 H                  0.39848148    2.66462963    0.86183333
 H                  2.13548148    1.54162963   -0.55316667
 H                  0.58248148    1.69162963   -1.42016667
 H                  1.97148148   -0.78537037   -0.37416667
 H                  1.10948148   -0.55037037   -1.92616667
 O                 -0.17351852   -2.31737037   -0.41916667

 5 6 4 17 180.0 F
 2 1 4 17 180.0 F
