# opt dreiding

ethanol-g

0 1
 H                 -1.51569231   -0.31584615    0.48826923
 O                 -0.89269231   -0.86384615    0.04026923
 C                  0.38830769   -0.33084615    0.28926923
 H                  1.14130769   -1.04084615   -0.12973077
 C                  0.50730769    1.04815385   -0.36673077
 H                  0.52230769   -0.26184615    1.39526923
 H                 -0.25869231    1.75015385    0.03626923
 H                  0.36730769    0.98215385   -1.47073077
 H                  1.51130769    1.49315385   -0.17673077

 1 2 1.0
 2 3 1.0
 3 4 1.0 5 1.0 6 1.0
 4
 5 7 1.0 8 1.0 9 1.0
 6
 7
 8
 9

