# opt dreiding

ethyl methyl ether-a

0 1
 C                  0.52902941   -1.27991176    1.26052941
 C                 -0.02397059   -0.69791176   -0.04647059
 O                  0.01702941    0.71808824    0.03052941
 C                 -0.47997059    1.32908824   -1.14647059
 H                  0.51302941   -2.39391176    1.23852941
 H                  1.58302941   -0.95691176    1.42852941
 H                  0.59802941   -1.04091176   -0.90947059
 H                 -0.41797059    2.43508824   -1.01547059
 H                  0.14102941    1.03608824   -2.02647059
 H                 -1.54797059    1.04608824   -1.30747059
 H                 -0.07597059   -0.94691176    2.13552941
 H                 -1.07997059   -1.03091176   -0.19347059

 1 2 1.0 5 1.0 6 1.0 11 1.0
 2 3 1.0 7 1.0 12 1.0
 3 4 1.0
 4 8 1.0 9 1.0 10 1.0
 5
 6
 7
 8
 9
 10
 11
 12

