# opt dreiding

ethyl methyl ether-g

0 1
 C                  0.08382353   -1.29914706    0.94314706
 C                 -0.51617647   -0.68014706   -0.32685294
 O                 -0.53717647    0.73885294   -0.27685294
 C                  0.74982353    1.32085294   -0.39485294
 H                 -0.07317647   -2.40214706    0.95214706
 H                  1.18282353   -1.13214706    1.01414706
 H                  0.01682353   -1.02314706   -1.24585294
 H                  0.62082353    2.42785294   -0.43985294
 H                  1.37382353    1.07885294    0.49614706
 H                  1.24782353    0.98085294   -1.33285294
 H                 -0.39517647   -0.88314706    1.86014706
 H                 -1.58117647   -1.00714706   -0.41785294

 1 2 1.0 5 1.0 6 1.0 11 1.0
 2 3 1.0 7 1.0 12 1.0
 3 4 1.0
 4 8 1.0 9 1.0 10 1.0
 5
 6
 7
 8
 9
 10
 11
 12

