# opt dreiding

formaldehyde dimethylacetal-g-g-

0 1
 C                  1.34297619   -0.83928571   -1.15630952
 O                  0.81397619   -0.83428571    0.15869048
 C                 -0.59402381   -0.65428571    0.17969048
 O                 -0.94602381    0.68871429   -0.11830952
 C                 -0.67502381    1.57471429    0.95369048
 H                  2.44897619   -0.96228571   -1.08030952
 H                  0.92697619   -1.69628571   -1.73730952
 H                  1.12497619    0.12671429   -1.66930952
 H                 -1.07902381   -1.32628571   -0.57030952
 H                 -0.97702381   -0.93428571    1.19269048
 H                 -0.95802381    2.60371429    0.62869048
 H                 -1.28602381    1.30071429    1.84669048
 H                  0.41197619    1.56571429    1.20369048

 1 2 1.0 6 1.0 7 1.0 8 1.0
 2 3 1.0
 3 4 1.0 9 1.0 10 1.0
 4 5 1.0
 5 11 1.0 12 1.0 13 1.0
 6
 7
 8
 9
 10
 11
 12
 13

