# opt dreiding

glycolic acid-cis1

0 1
 C                  0.17435000   -0.49740000   -0.01660000
 C                  0.25735000    1.01460000    0.05540000
 O                  1.39635000   -1.06240000   -0.02060000
 O                 -0.84765000   -1.14340000   -0.03460000
 O                 -1.02365000    1.59860000   -0.05160000
 H                  0.68935000    1.31060000    1.04140000
 H                  0.89035000    1.41660000   -0.77060000
 H                  1.27535000   -2.02640000   -0.04860000
 H                 -1.64565000    1.05360000    0.39940000

 1 2 1.0 3 1.0 4 2.0
 2 5 1.0 6 1.0 7 1.0
 3 8 1.0
 4
 5 9 1.0
 6
 7
 8
 9

