# opt dreiding

glycolic acid-cis

0 1
 C                  0.14177500   -0.53875000    0.00012500
 C                  0.23877500    0.97725000   -0.00187500
 O                  1.37077500   -1.09275000   -0.00387500
 O                 -0.86222500   -1.21275000    0.00412500
 O                 -1.03222500    1.58725000    0.00212500
 H                  0.78477500    1.32625000    0.90712500
 H                  0.77877500    1.32525000   -0.91387500
 H                  1.25277500   -2.05775000   -0.00287500
 H                 -0.91022500    2.52125000    0.00112500

 1 2 1.0 3 1.0 4 2.0
 2 5 1.0 6 1.0 7 1.0
 3 8 1.0
 4
 5 9 1.0
 6
 7
 8
 9

