# opt dreiding

isopropanol-g

0 1
 C                 -0.24494118   -1.41217647    0.27717647
 C                 -0.20494118    0.12182353    0.27617647
 C                  1.23405882    0.65682353    0.26517647
 O                 -0.88494118    0.59882353   -0.86482353
 H                 -1.29494118   -1.78517647    0.28317647
 H                  0.26005882   -1.82717647   -0.62582353
 H                  0.26705882   -1.82417647    1.17717647
 H                 -0.74594118    0.51682353    1.17217647
 H                  1.24505882    1.77182353    0.25217647
 H                  1.79105882    0.32282353    1.17017647
 H                  1.79005882    0.29982353   -0.63182353
 H                 -0.93794118    1.53582353   -0.78982353

 1 2 1.0 5 1.0 6 1.0 7 1.0
 2 3 1.0 4 1.0 8 1.0
 3 9 1.0 10 1.0 11 1.0
 4 12 1.0
 5
 6
 7
 8
 9
 10
 11
 12

