# opt dreiding

Me acetate-E-lp

0 1
 C                 -0.91255000   -1.15807500   -0.03272500
 C                  0.43245000   -0.45507500    0.02527500
 O                  1.47145000   -1.07807500    0.08227500
 O                  0.40145000    0.90792500    0.01127500
 C                 -0.82355000    1.61092500   -0.05672500
 H                 -0.58755000    2.70192500   -0.05572500
 H                 -1.35955000    1.37692500   -1.00572500
 H                 -1.45055000    1.39492500    0.84027500
 H                 -1.54455000   -0.90907500    0.84927500
 H                 -1.45555000   -0.92807500   -0.97672500
 H                 -0.76355000   -2.26207500   -0.01472500

 1 2 1.0 9 1.0 10 1.0 11 1.0
 2 3 2.0 4 1.0
 3
 4 5 1.0
 5 6 1.0 7 1.0 8 1.0
 6
 7
 8
 9
 10
 11

