# opt dreiding

Me acetate-Z

0 1
 C                 -0.09760000   -1.85580000   -0.00005000
 C                 -0.32660000   -0.35980000   -0.00005000
 O                 -1.41460000    0.16820000   -0.00005000
 O                  0.84840000    0.29220000   -0.00005000
 C                  0.79940000    1.69720000   -0.00005000
 H                  1.85240000    2.05720000   -0.00005000
 H                  0.28740000    2.05320000   -0.92405000
 H                  0.28740000    2.05320000    0.92495000
 H                  0.98440000   -2.12080000   -0.00005000
 H                 -0.56660000   -2.30780000    0.90395000
 H                 -0.56660000   -2.30780000   -0.90305000

 1 2 1.0 9 1.0 10 1.0 11 1.0
 2 3 2.0 4 1.5
 3
 4 5 1.0
 5 6 1.0 7 1.0 8 1.0
 6
 7
 8
 9
 10
 11

