# opt dreiding

Me acetate-E

0 1
 C                 -0.49187500   -1.39860000    0.03862500
 C                 -0.57287500    0.10640000    0.21862500
 O                 -1.56487500    0.66040000    0.63162500
 O                  0.52612500    0.81140000   -0.11137500
 C                  1.69312500    0.19440000   -0.59237500
 H                  2.42712500    1.01040000   -0.77637500
 H                  2.11112500   -0.48860000    0.18162500
 H                  1.48412500   -0.31860000   -1.55837500
 H                  0.29612500   -1.84760000    0.68562500
 H                 -1.45587500   -1.86660000    0.34162500
 H                 -0.32287500   -1.67660000   -1.02537500

 1 2 1.0 9 1.0 10 1.0 11 1.0
 2 3 2.0 4 1.0
 3
 4 5 1.0
 5 6 1.0 7 1.0 8 1.0
 6
 7
 8
 9
 10
 11

