# opt dreiding

Me formate-Z

0 1
 H                 -0.00262500   -1.96390625    0.00715625
 C                  0.27737500   -0.88690625   -0.00484375
 O                  1.40937500   -0.46690625   -0.03984375
 O                 -0.84562500   -0.15490625    0.02515625
 C                 -0.69162500    1.24309375    0.01615625
 H                 -1.71362500    1.68109375    0.04315625
 H                 -0.12762500    1.56309375    0.92315625
 H                 -0.18062500    1.55709375   -0.92384375

 1 2 1.0
 2 3 2.0 4 1.5
 3
 4 5 1.0
 5 6 1.0 7 1.0 8 1.0
 6
 7
 8

