# opt dreiding

me glycolate-cis

0 1
 C                 -0.11654167   -0.09114583   -0.00329167
 C                  0.09945833    1.41485417    0.01370833
 O                  1.08645833   -0.72714583    0.01670833
 O                 -1.18854167   -0.65414583   -0.03029167
 O                 -1.11754167    2.12585417   -0.00629167
 C                  1.04645833   -2.14114583    0.00470833
 H                  0.64945833    1.71085417    0.93870833
 H                  0.68745833    1.72585417   -0.88229167
 H                 -0.91954167    3.04685417    0.00570833
 H                  2.09745833   -2.51514583    0.02370833
 H                  0.51345833   -2.51714583    0.91070833
 H                  0.55245833   -2.50314583   -0.92829167

 1 2 1.0 3 1.0 4 2.0
 2 5 1.0 7 1.0 8 1.0
 3 6 1.0
 4
 5 9 1.0
 6 10 1.0 11 1.0 12 1.0
 7
 8
 9
 10
 11
 12

