#p Opt=(Modredun,nomicro) dreiding

me glycolate-skew

0 1
 C                 -0.43700000   -0.04645833   -0.17570833
 C                 -0.24600000    1.46154167   -0.17770833
 O                  0.76200000   -0.68245833   -0.10170833
 O                 -1.50500000   -0.59745833   -0.31670833
 O                  0.49000000    1.88954167    0.94529167
 C                  0.72500000   -2.09345833   -0.19170833
 H                  0.30000000    1.77854167   -1.09870833
 H                 -1.23500000    1.97654167   -0.15170833
 H                  0.50600000    2.83054167    0.94629167
 H                  1.77200000   -2.47145833   -0.11470833
 H                  0.12700000   -2.51645833    0.65129167
 H                  0.30200000   -2.40445833   -1.17670833

4 1 3 6 0.0 F
