# opt dreiding

propanal-eclipsed

0 1
 H                 -0.29840625   -2.06687500   -0.00006250
 C                 -0.38840625   -0.95587500   -0.00006250
 C                  0.90559375   -0.16487500   -0.00006250
 C                  0.69859375    1.35412500   -0.00006250
 O                 -1.49040625   -0.45887500   -0.00006250
 H                  1.49059375   -0.46087500    0.90293750
 H                  1.49059375   -0.46087500   -0.90206250
 H                  1.67659375    1.88912500   -0.00006250
 H                  0.13459375    1.68512500   -0.90206250
 H                  0.13459375    1.68512500    0.90293750

 1 2 1.0
 2 3 1.0 5 2.0
 3 4 1.0 6 1.0 7 1.0
 4 8 1.0 9 1.0 10 1.0
 5
 6
 7
 8
 9
 10

