# opt dreiding

propanal-skew

0 1
 H                 -0.74059375   -1.29378125    0.75340625
 C                 -0.77959375   -0.28478125    0.28440625
 C                  0.51440625    0.50721875    0.24640625
 C                  1.66240625   -0.30178125   -0.36759375
 O                 -1.83259375    0.13221875   -0.13759375
 H                  0.35540625    1.44521875   -0.33859375
 H                  0.76940625    0.80121875    1.29140625
 H                  2.60240625    0.29721875   -0.39459375
 H                  1.86840625   -1.22478125    0.22240625
 H                  1.42240625   -0.60678125   -1.41259375

 1 2 1.0
 2 3 1.0 5 2.0
 3 4 1.0 6 1.0 7 1.0
 4 8 1.0 9 1.0 10 1.0
 5
 6
 7
 8
 9
 10

