# opt dreiding

THP-SMeeq

0 1
 C                 -1.80504167   -1.17326389   -1.39922222
 C                 -1.85304167    0.35673611   -1.47322222
 C                 -0.46504167    0.91573611   -1.13122222
 C                 -1.25704167   -1.61426389   -0.03622222
 C                  0.01095833    0.35773611    0.22177778
 O                  0.02895833   -1.06326389    0.18777778
 S                  1.68395833    1.01473611    0.56277778
 C                  1.95895833    0.23473611    2.17877778
 H                 -1.14904167   -1.56826389   -2.21122222
 H                 -2.82504167   -1.59826389   -1.55922222
 H                 -2.60404167    0.74473611   -0.74422222
 H                 -2.17204167    0.69073611   -2.49022222
 H                 -0.51204167    2.03173611   -1.10422222
 H                  0.24995833    0.62773611   -1.93922222
 H                 -1.15304167   -2.72626389   -0.00422222
 H                 -1.93904167   -1.31526389    0.79677778
 H                 -0.68304167    0.68873611    1.03277778
 H                  1.98395833   -0.87326389    2.07877778
 H                  2.93695833    0.57673611    2.58377778
 H                  1.15295833    0.52673611    2.88977778

 1 2 1.0 4 1.0 9 1.0 10 1.0
 2 3 1.0 11 1.0 12 1.0
 3 5 1.0 13 1.0 14 1.0
 4 6 1.0 15 1.0 16 1.0
 5 6 1.0 7 1.0 17 1.0
 6
 7 8 1.0
 8 18 1.0 19 1.0 20 1.0
 9
 10
 11
 12
 13
 14
 15
 16
 17
 18
 19
 20

