# opt dreiding

vinyl alcohol s-cis

0 1
 C                  0.41200000   -1.12516667    0.12908333
 C                  0.37700000    0.17183333   -0.20591667
 O                 -0.68100000    0.99383333    0.02008333
 H                 -1.38600000    0.48583333    0.45608333
 H                  1.29900000   -1.74616667   -0.07891667
 H                 -0.44900000   -1.60316667    0.62308333
 H                  1.25000000    0.63283333   -0.69991667

 1 2 2.0 5 1.0 6 1.0
 2 3 1.0 7 1.0
 3 4 1.0
 4
 5
 6
 7

