$RunGaus
%mem=8000Mb
%nproc=8
%RWF=/media/S_/Gaussian_scratch/,140GB,/media/TOSHIBA\ EXT/,200GB,/home/scratch/stylianakis/,60GB,
%NoSave
# mp2/cc-pVTZ

2-(1-Ad)-N-Me-pip-ecl.hin

0  1
C          -1.64060         0.05372        -2.58291
C          -2.97963         0.27065        -1.86735
C          -2.70710         1.11250        -0.61494
C          -0.66296        -0.64636        -1.62027
C          -1.69943         0.38132         0.29066
C          -0.29988         0.22026        -0.37604
C          -1.06643         1.40708        -3.02845
C           0.21298         1.58712        -0.87826
C          -0.81673         2.27733        -1.78756
C          -2.13358         2.48021        -1.02073
C           0.72498        -0.46451         0.61743
C           1.09839        -1.90349         0.17662
C           2.03504        -2.66559         1.11912
C           1.48109        -2.55710         2.54099
N           0.47765        -0.31795         2.05932
C           1.44149        -1.06408         2.87087
Xx         -0.07453        -0.52316         2.17989
H          -1.80917        -0.58808        -3.48381
H          -3.43450        -0.70860        -1.58544
H          -3.70724         0.78549        -2.53855
H          -3.66989         1.26287        -0.06503
H           0.26211        -0.84980        -2.20708
H          -1.10799        -1.62941        -1.34308
H          -2.09905        -0.61930         0.57992
H          -1.67862         0.95757         1.23603
H          -1.77594         1.91806        -3.72169
H          -0.11607         1.25680        -3.59348
H           1.16558         1.44564        -1.44101
H           0.45021         2.26487        -0.02850
H          -0.41834         3.27176        -2.10968
H          -2.86701         3.02862        -1.65821
H          -1.95858         3.10889        -0.11563
H           1.69301         0.06035         0.43423
H           1.56077        -1.92325        -0.83849
H           0.16009        -2.50390         0.14795
H           3.06370        -2.23506         1.06672
H           2.11402        -3.73763         0.81529
H           2.14829        -3.10095         3.25267
H           0.46239        -3.00763         2.61378
H           1.15721        -0.97836         3.94784
H           2.46942        -0.63850         2.77177
C           0.58216         1.07259         2.52005
H           0.31106         1.14823         3.59877
H           1.61316         1.47647         2.38823
H          -0.09215         1.78165         2.00316

