$RunGaus
%mem=8000Mb
%nproc=8
# mp2/cc-pVTZ

acetone-ecl.hin

0  1
C          -1.30491        -1.09061         0.25717
C          -1.29699         0.36699        -0.16280
O          -2.32343         0.93553        -0.46013
C           0.04223         1.07811        -0.19298
H          -1.94109        -1.22175         1.16179
H          -1.71504        -1.72034        -0.56471
H          -0.27894        -1.45175         0.49575
H          -0.07315         2.13838        -0.51455
H           0.50137         1.06921         0.82153
H           0.72783         0.56934        -0.90797

