$RunGaus
%mem=8000Mb
%nproc=8
# mp2/cc-pVTZ

cyclohexene boat.hin

0  1
C          -2.00305        -0.93553         0.25376
C          -0.78812        -1.69059        -0.21119
C           0.25890        -1.01378        -0.70124
C          -1.58835         0.28665         1.08718
C          -0.38274         1.06598         0.52290
C           0.19794         0.48721        -0.77638
H          -2.66156        -1.60245         0.85974
H          -2.58364        -0.62195        -0.64561
H          -0.79140        -2.79379        -0.18710
H           1.14470        -1.54228        -1.09327
H          -1.32814        -0.07087         2.11311
H          -2.46736         0.96313         1.21514
H           0.42860         1.06475         1.29088
H          -0.64888         2.13863         0.36399
H           1.21727         0.90486        -0.95569
H          -0.43525         0.76679        -1.65114



















































