$RunGaus
%mem=8000Mb
%nproc=8
# mp2/cc-pVTZ

cyclohexene-hc.hin

0  1
C          -1.70045        -0.57342         0.65751
C          -1.66030         0.95847         0.71610
C          -0.20606         1.44705         0.65858
C           0.57449         0.75632        -0.42847
C          -1.13161        -1.06157        -0.68225
C           0.16126        -0.37051        -1.02709
H          -2.74526        -0.94561         0.78682
H          -1.09691        -0.98615         1.50130
H          -2.15128         1.33035         1.64752
H          -2.23584         1.37120        -0.14702
H           0.30911         1.25439         1.62897
H          -0.19431         2.54858         0.48095
H           1.53935         1.20437        -0.72330
H          -1.85673        -0.86884        -1.50762
H          -0.96112        -2.16308        -0.63060
H           0.77882        -0.81829        -1.82506

