$RunGaus
%mem=8000Mb
%nproc=8
# mp2/cc-pVTZ

Dimethylether-g.hin

0  1
C          -0.69867        -0.89338         0.07846
O          -0.83040         0.44476        -0.34290
C          -2.11397         0.97030        -0.09437
H           0.34189        -1.20623        -0.16234
H          -0.85894        -0.95829         1.17919
H          -1.41680        -1.53596        -0.48091
H          -2.31758         0.96260         1.00107
H          -2.10886         2.02086        -0.46170
H          -2.87555         0.38487        -0.65896
Xx         -0.61323         0.52730        -0.46610
Xx         -1.17074         0.32824        -0.22942

