$RunGaus
%mem=8000Mb
%nproc=8
# mp2/cc-pVTZ

dimethylphosphine-a.hin

0  1
P          -0.86189        -0.01285        -0.54157
C          -0.88061         1.87037        -0.42786
C           0.90739        -0.65824        -0.42787
Xx         -1.40821        -0.39916         0.51415
H          -1.65206        -0.57159        -1.60363
H          -1.92799         2.24271        -0.37426
H          -0.33550         2.20633         0.48241
H          -0.38895         2.31405        -1.32231
H           0.90931        -1.76984        -0.37426
H           1.48958        -0.34259        -1.32231
H           1.40584        -0.25629         0.48241

