$RunGaus
%mem=8000Mb
%nproc=8
# mp2/cc-pVTZ

dimethylphosphine-ecl.hin

0  1
P          -0.85392        -0.00647        -0.55405
C          -0.88424         1.88090        -0.44483
C           0.91023        -0.66672        -0.41449
Xx         -1.37724        -0.35931         0.52483
H          -1.68215        -0.61563        -1.55780
H          -1.93341         2.24495        -0.37242
H          -0.32469         2.22338         0.45420
H          -0.41318         2.32504        -1.35004
H           0.99913        -1.37951         0.43552
H           1.18672        -1.19653        -1.35333
H           1.62953         0.17234        -0.28329

