%Mem=105Gb
%NProcShared=24
# opt mp2/cc-pVTZ

dimethylphosphine_a

0 1
 P                  0.00000000   -0.64763500   -0.11361100
 C                  1.43134600    0.52406300    0.02357400
 C                 -1.43134600    0.52406300    0.02357400
 H                  0.00000100   -1.11752400    1.21253300
 H                  2.35140900   -0.03970700    0.13737200
 H                  1.51154200    1.10133500   -0.89194600
 H                  1.33704500    1.21001400    0.85894900
 H                 -2.35141100   -0.03970700    0.13736200
 H                 -1.33704800    1.21000700    0.85895500
 H                 -1.51153500    1.10134200   -0.89194300

