%Mem=105Gb
%NProcShared=24
# opt=modredundant mp2/cc-pVTZ

dimethylphosphine-ecl

0 1
 P                 -0.46602941   -0.32852941   -0.03958824
 C                 -0.49602941    1.55847059    0.06941176
 C                  1.29797059   -0.98952941    0.10041176
 H                 -1.29402941   -0.93852941   -1.04358824
 H                 -1.54502941    1.92247059    0.14241176
 H                  0.06297059    1.90047059    0.96841176
 H                 -0.02502941    2.00247059   -0.83558824
 H                  1.38697059   -1.70252941    0.95041176
 H                  1.57497059   -1.51952941   -0.83858824
 H                  2.01797059   -0.15052941    0.23141176

D 4 1 3 9 F

