$RunGaus
%mem=8000Mb
%nproc=8
# mp2/cc-pVTZ

ethanol-g.hin

0  1
C          -0.60659        -1.01378         0.00000
C          -0.65343         0.51728         0.00000
O          -1.99660         0.94529        -0.00000
H          -1.99199         1.88736         0.00000
H          -0.15864         0.93804         0.90835
H          -0.15863         0.93804        -0.90834
H           0.44677        -1.37801        -0.00000
H          -1.11221        -1.42985         0.90190
H          -1.11221        -1.42985        -0.90189
Xx         -2.21728         0.82881        -0.54700
Xx         -2.21729         0.82880         0.54699

