$RunGaus
%mem=8000Mb
%nproc=8
%RWF=/media/S_/Gaussian_scratch/,130GB,/media/TOSHIBA\ EXT/,120GB,/home/scratch/stylianakis/,50GB,
%NoSave
# mp2/cc-pVTZ

N-Me-spiro[piperidine-2,2'-adamantane]-ch.hin

0  1
C          -2.66616        -0.75182        -0.96095
C          -2.50006         0.75212        -0.70350
C          -1.00179         1.11736        -0.68200
C          -0.20255         0.38551         0.44640
C          -0.43484        -1.13109         0.14659
C          -1.92525        -1.53088         0.13453
C           0.15027        -1.51494        -1.23022
C          -0.57461        -0.73165        -2.33606
C          -0.42038         0.77438        -2.07021
C          -2.06631        -1.10348        -2.33216
C          -0.73256         0.72857         1.87096
C          -0.49075         2.21416         2.18570
C           1.00971         2.50665         2.08968
C           1.48807         2.14208         0.67566
N           1.24010         0.72775         0.38565
Xx          1.40636         0.64234        -0.18467
C           2.12131        -0.11785         1.18788
H          -3.75170        -1.02088        -0.94965
H          -3.00602         1.04589         0.24422
H          -3.02319         1.32618        -1.50503
H          -0.95442         2.22336        -0.56369
H           0.04596        -1.75294         0.93876
H          -2.40469        -1.36163         1.12545
H          -2.02624        -2.62616        -0.05456
H           0.03925        -2.61133        -1.40499
H           1.24350        -1.30896        -1.28725
H          -0.13197        -0.98599        -3.33122
H          -0.94856         1.35298        -2.86492
H           0.65202         1.07081        -2.14153
H          -2.60366        -0.55515        -3.14185
H          -2.19387        -2.19184        -2.54244
H          -0.25520         0.08912         2.64771
H          -1.82207         0.53696         1.97630
H          -0.84341         2.43727         3.22157
H          -1.07470         2.88206         1.51137
H           1.57680         1.96415         2.88113
H           1.18731         3.59393         2.27158
H           2.57741         2.36549         0.57925
H           1.00933         2.79880        -0.08516
H           2.14453        -1.16427         0.81352
H           3.17743         0.22786         1.10568
H           1.85654        -0.14560         2.26649

