# opt=modredundant mp2/cc-pVTZ

N-me-piperidine-sofa-eq

0 1
 C                 -1.24187500   -1.12405357   -0.48478571
 C                 -0.05787500   -1.93705357    0.06321429
 C                  1.10412500   -1.15605357    0.69821429
 C                  0.96012500    0.37094643    0.73821429
 N                  0.20912500    0.89494643   -0.39078571
 C                 -1.15587500    0.39894643   -0.32978571
 H                 -2.20987500   -1.49405357   -0.06778571
 H                 -1.29887500   -1.33405357   -1.58078571
 H                  0.33112500   -2.62605357   -0.72478571
 H                 -0.46187500   -2.62105357    0.84721429
 H                  2.01412500   -1.37805357    0.09121429
 H                  1.33612500   -1.54105357    1.72021429
 H                  1.98012500    0.82594643    0.76621429
 H                  0.46312500    0.66594643    1.69321429
 C                  0.23212500    2.35094643   -0.39878571
 H                 -1.77487500    0.87594643   -1.12778571
 H                 -1.62187500    0.69394643    0.64121429
 H                 -0.31687500    2.74594643   -1.28478571
 H                 -0.22787500    2.77494643    0.52421429
 H                  1.27912500    2.72494643   -0.47978571

D 6 1 2 3 F

