$RunGaus
%mem=8000Mb
%nproc=8
# mp2/cc-pVTZ

propane-low.hin

0  1
C           0.18138        -0.94631         0.00000
C           0.15149         0.58745         0.00000
C          -1.28459         1.12688        -0.00000
H           1.22941        -1.32620         0.00000
H          -0.32867        -1.35770         0.90139
H          -0.32868        -1.35770        -0.90139
H           0.69209         0.96971         0.89921
H           0.69209         0.96972        -0.89920
H          -1.29341         2.24160         0.00000
H          -1.84247         0.78313        -0.90139
H          -1.84248         0.78312         0.90139

