$RunGaus
%mem=8000Mb
%nproc=8
# mp2/cc-pVTZ

propene-H-H-anti.hin

0  1
C          -0.35245        -0.83456         0.00632
C          -0.38359         0.66971         0.03652
C           0.70528         1.43659         0.18841
H           0.67862        -1.23894         0.12444
H          -0.97872        -1.24638         0.83016
H          -0.75744        -1.20581        -0.96254
H          -1.37007         1.15274        -0.07440
H           0.62846         2.53606         0.20381
H           1.70765         0.99406         0.30222

