$RunGaus
%mem=8000Mb
%nproc=8
# mp2/cc-pVTZ

propane-ecl.hin

0  1
C           0.18836        -0.95179         0.00150
C           0.14629         0.58207        -0.00139
C          -1.28942         1.13244        -0.00046
H           1.23919        -1.32412         0.00080
H          -0.31577        -1.36494         0.90559
H          -0.31821        -1.36840        -0.89963
H           0.69809         0.96280         0.89167
H           0.69559         0.95934        -0.89744
H          -1.48267         1.76544         0.89646
H          -1.48514         1.76200        -0.89925
H          -2.05015         0.31887         0.00216

