%mem=2000MB
%nprocshared=4
%rwf=/pub/tmp/
%NoSave
# mp2/cc-pVTZ

tBu-CMe2Cl-ts

0 1
 C              
 C                  1            B1
 C                  2            B2    1            A1
 C                  2            B3    1            A2    3            D1    0
 Cl                 2            B4    1            A3    3            D2    0
 H                  3            B5    2            A4    1            D3    0
 H                  3            B6    2            A5    1            D4    0
 H                  3            B7    2            A6    1            D5    0
 H                  4            B8    2            A7    1            D6    0
 H                  4            B9    2            A8    1            D7    0
 H                  4           B10    2            A9    1            D8    0
 C                  1           B11    2           A10    4            D9    0
 C                  1           B12   12           A11    2           D10    0
 C                  1           B13   13           A12   12           D11    0
 H                 12           B14    1           A13   14           D12    0
 H                 12           B15    1           A14   14           D13    0
 H                 12           B16    1           A15   14           D14    0
 H                 13           B17    1           A16   14           D15    0
 H                 13           B18    1           A17   14           D16    0
 H                 13           B19    1           A18   14           D17    0
 H                 14           B20    1           A19   13           D18    0
 H                 14           B21    1           A20   13           D19    0
 H                 14           B22    1           A21   13           D20    0

   B1             1.61646813
   B2             1.53526697
   B3             1.53526433
   B4             1.88351125
   B5             1.09265518
   B6             1.09125122
   B7             1.09508404
   B8             1.09265571
   B9             1.09508362
   B10            1.09125065
   B11            1.54896088
   B12            1.54895708
   B13            1.54539938
   B14            1.09499448
   B15            1.09350581
   B16            1.09426910
   B17            1.09499464
   B18            1.09426844
   B19            1.09350596
   B20            1.09581756
   B21            1.09270014
   B22            1.09269772
   A1           114.31221591
   A2           114.31303308
   A3           111.10111026
   A4           109.59191437
   A5           112.43723815
   A6           110.25803697
   A7           109.59192020
   A8           110.25793951
   A9           112.43743169
   A10          111.32203202
   A11          106.86040829
   A12          106.83495376
   A13          108.85195152
   A14          112.35279198
   A15          112.63015151
   A16          108.85185861
   A17          112.62958155
   A18          112.35337792
   A19          108.76092520
   A20          112.03232870
   A21          112.03158681
   D1           125.86847233
   D2          -117.06418493
   D3          -178.21932141
   D4           -58.18097723
   D5            63.10801927
   D6           178.21997697
   D7           -63.10764917
   D8            58.18123283
   D9             3.36731354
   D10         -121.74684124
   D11          114.06960694
   D12          -56.82326882
   D13           61.78860318
   D14         -175.52298428
   D15           56.82471875
   D16          175.52401679
   D17          -61.78762255
   D18          -57.04259858
   D19           62.26737526
   D20         -176.35186571
