# opt uff

Ach-B

1 1
 C                 -1.13225926   -0.34193827    0.23837037
 C                 -0.99325926    0.97906173   -0.54362963
 H                 -0.99825926    0.71706173   -1.62862963
 H                 -1.93225926    1.55906173   -0.37162963
 N                  0.15874074    1.84706173   -0.24762963
 H                 -0.98425926   -0.20593827    1.33437037
 O                 -0.20225926   -1.27593827   -0.25962963
 H                 -2.14625926   -0.77493827    0.06337037
 C                 -0.08025926   -2.44393827    0.39237037
 O                 -0.72325926   -2.77493827    1.36137037
 C                  0.99574074   -3.27593827   -0.26962963
 C                  1.42374074    1.14106173   -0.46262963
 C                  0.10974074    3.00606173   -1.14962963
 C                  0.10974074    2.33506173    1.13337037
 H                  1.12574074   -4.24493827    0.26437037
 H                  0.72174074   -3.49493827   -1.32662963
 H                  1.96974074   -2.73493827   -0.24962963
 H                  2.29674074    1.82006173   -0.32262963
 H                  1.55774074    0.30506173    0.26037037
 H                  1.48474074    0.72306173   -1.49362963
 H                  0.95874074    3.70606173   -0.96662963
 H                  0.16774074    2.69406173   -2.21862963
 H                 -0.83225926    3.58706173   -1.01762963
 H                  0.93874074    3.05106173    1.34037037
 H                 -0.84925926    2.86306173    1.34537037
 H                  0.21474074    1.51106173    1.87537037

 1 2 1.0 6 1.0 7 1.0 8 1.0
 2 3 1.0 4 1.0 5 1.0
 3
 4
 5 12 1.0 13 1.0 14 1.0
 6
 7 9 1.5
 8
 9 10 2.0 11 1.0
 10
 11 15 1.0 16 1.0 17 1.0
 12 18 1.0 19 1.0 20 1.0
 13 21 1.0 22 1.0 23 1.0
 14 24 1.0 25 1.0 26 1.0
 15
 16
 17
 18
 19
 20
 21
 22
 23
 24
 25
 26

