# opt uff

dioxalane-B

1 1
 O                  1.08165979   -0.03721649   -0.59670103
 C                  0.35165979   -0.13621649    0.60929897
 C                  1.02265979   -1.38221649    1.20729897
 C                  2.42565979   -0.38521649   -0.31170103
 O                  2.36665979   -1.29321649    0.77929897
 C                 -1.14334021   -0.42921649    0.31429897
 N                 -2.04434021    0.57378351   -0.28570103
 C                  3.08465979   -1.03121649   -1.53470103
 H                  0.60365979   -2.33221649    0.79229897
 H                  0.97765979   -1.42621649    2.32129897
 H                  2.98765979    0.53178351    0.00529897
 C                 -3.29334021   -0.10921649   -0.66170103
 C                 -2.40134021    1.63778351    0.65629897
 C                 -1.45934021    1.16378351   -1.48970103
 H                  2.53165979   -1.94521649   -1.85270103
 H                  3.10265979   -0.32321649   -2.39470103
 H                  4.13565979   -1.32621649   -1.30870103
 H                 -1.13234021   -1.31821649   -0.35970103
 H                 -1.59334021   -0.79021649    1.26929897
 H                 -4.03034021    0.59378351   -1.11470103
 H                 -3.11534021   -0.91121649   -1.41570103
 H                 -3.78334021   -0.58021649    0.22229897
 H                 -3.17334021    2.31778351    0.22729897
 H                 -2.81334021    1.22378351    1.60629897
 H                 -1.54434021    2.29278351    0.91029897
 H                 -2.17834021    1.84878351   -1.99670103
 H                 -0.56034021    1.77378351   -1.25170103
 H                 -1.16634021    0.37878351   -2.22470103
 C                  0.63265979    1.07678351    1.51429897
 H                  0.55165979    2.03678351    0.95929897
 H                  1.66365979    1.06378351    1.93629897
 H                 -0.05934021    1.08778351    2.38629897

 1 2 1.0 4 1.0
 2 3 1.0 6 1.0 29 1.0
 3 5 1.0 9 1.0 10 1.0
 4 5 1.0 8 1.0 11 1.0
 5
 6 7 1.0 18 1.0 19 1.0
 7 12 1.0 13 1.0 14 1.0
 8 15 1.0 16 1.0 17 1.0
 9
 10
 11
 12 20 1.0 21 1.0 22 1.0
 13 23 1.0 24 1.0 25 1.0
 14 26 1.0 27 1.0 28 1.0
 15
 16
 17
 18
 19
 20
 21
 22
 23
 24
 25
 26
 27
 28
 29 30 1.0 31 1.0 32 1.0
 30
 31
 32

