$RunGaus
%mem=16000Mb
%nproc=8
# mp2/cc-pVTZ

1_propanol_ga_single_point

0 1 
 c
 c   1 cc2     
 c    2 cc3         1 ccc3      
 o    3 oc4         2 occ4          1 dih4   
 h    3 hc5         2 hcc5          1 dih5   
 h    2 hc6         3 hcc6          4 dih6   
 h    2 hc7         3 hcc7          4 dih7   
 h    1 hc8         2 hcc8          3 dih8   
 h    1 hc9         2 hcc9          3 dih9   
 h    1 hc10        2 hcc10         3 dih10  
 h    3 hc11        2 hcc11         1 dih11  
 h    4 ho12        3 hoc12         2 dih12  
 
cc2         1.532648
cc3         1.523742
ccc3        113.608
oc4         1.432269
occ4        108.508
dih4        -63.627
hc5         1.100307
hcc5        109.814
dih5        175.735
hc6         1.097329
hcc6        108.317
dih6         58.936
hc7         1.098199
hcc7        107.793
dih7        174.117
hc8         1.095253
hcc8        111.003
dih8        179.889
hc9         1.096971
hcc9        111.067
dih9        -60.295
hc10        1.093563
hcc10       110.858
dih10        59.625
hc11        1.101608
hcc11       109.888
dih11        57.076
ho12        0.964971
hoc12       109.244
dih12       178.450
 
 
 

