$RunGaus
%mem=16000Mb
%nproc=8
# mp2/cc-pVTZ

2_5_dimethyl_1_3_dioxane_eq_eq_single_point

0 1 
 c
 c   1 cc2     
 c    2 cc3         1 ccc3      
 o    3 oc4         2 occ4          1 dih4   
 c    4 co5         3 coc5          2 dih5   
 o    5 oc6         4 oco6          3 dih6   
 c    2 cc7         3 ccc7          4 dih7   
 c    5 cc8         4 cco8          3 dih8   
 h    3 hc9         2 hcc9          1 dih9   
 h    3 hc10        2 hcc10         1 dih10  
 h    2 hc11        3 hcc11         4 dih11  
 h    5 hc12        4 hco12         3 dih12  
 h    1 hc13        2 hcc13         3 dih13  
 h    1 hc14        2 hcc14         3 dih14  
 h    8 hc15        5 hcc15         4 dih15  
 h    8 hc16        5 hcc16         4 dih16  
 h    8 hc17        5 hcc17         4 dih17  
 h    7 hc18        2 hcc18         3 dih18  
 h    7 hc19        2 hcc19         3 dih19  
 h    7 hc20        2 hcc20         3 dih20  
 
cc2         1.533749
cc3         1.533762
ccc3        107.806
oc4         1.428215
occ4        111.179
dih4         51.804
co5         1.416738
coc5        112.082
dih5        -56.726
oc6         1.416607
oco6        111.506
dih6         59.714
cc7         1.531216
ccc7        112.015
dih7        175.484
cc8         1.511944
cco8        108.570
dih8        179.290
hc9         1.104688
hcc9        109.900
dih9        -69.659
hc10        1.093702
hcc10       111.709
dih10       170.338
hc11        1.097718
hcc11       107.660
dih11       -64.085
hc12        1.107853
hco12       108.262
dih12       -59.289
hc13        1.104681
hcc13       109.902
dih13        69.657
hc14        1.093698
hcc14       111.711
dih14      -170.336
hc15        1.093302
hcc15       109.565
dih15       -60.697
hc16        1.093006
hcc16       109.931
dih16        59.132
hc17        1.093008
hcc17       109.932
dih17       179.473
hc18        1.096950
hcc18       111.429
dih18       -60.642
hc19        1.095669
hcc19       111.145
dih19        59.488
hc20        1.095670
hcc20       111.145
dih20       179.227
 
 
 

