$RunGaus
%mem=16000Mb
%nproc=8
# mp2/cc-pVTZ

2_butanone_skew_single_point

0 1 
 c
 c   1 cc2     
 o    2 oc3         1 occ3      
 c    2 cc4         3 cco4          1 dih4   
 c    4 cc5         2 ccc5          3 dih5   
 h    1 hc6         2 hcc6          4 dih6   
 h    1 hc7         2 hcc7          4 dih7   
 h    1 hc8         2 hcc8          4 dih8   
 h    4 hc9         2 hcc9          1 dih9   
 h    4 hc10        2 hcc10         1 dih10  
 h    5 hc11        4 hcc11         2 dih11  
 h    5 hc12        4 hcc12         2 dih12  
 h    5 hc13        4 hcc13         2 dih13  
 
cc2         1.519361
oc3         1.220056
occ3        121.047
cc4         1.523788
cco4        121.181
dih4        179.956
cc5         1.538818
ccc5        114.242
dih5        125.347
hc6         1.091241
hcc6        109.622
dih6       -165.344
hc7         1.095570
hcc7        111.534
dih7        -42.959
hc8         1.096880
hcc8        109.632
dih8         75.458
hc9         1.099684
hcc9        107.517
dih9         66.659
hc10        1.093533
hcc10       107.203
dih10      -177.953
hc11        1.095278
hcc11       111.154
dih11       -58.480
hc12        1.094599
hcc12       112.034
dih12        62.577
hc13        1.094302
hcc13       110.172
dih13      -177.733
 
 
 

