$RunGaus
%mem=16000Mb
%nproc=8
# mp2/cc-pVTZ

2_methoxytetrahydropyran_eq_single_point

0 1 
 c
 o   1 oc2     
 c    2 co3         1 coc3      
 c    3 cc4         2 cco4          1 dih4   
 c    4 cc5         3 ccc5          2 dih5   
 c    5 cc6         4 ccc6          3 dih6   
 o    1 oc7         2 oco7          3 dih7   
 c    7 co8         1 coc8          2 dih8   
 h    3 hc9         4 hcc9          5 dih9   
 h    3 hc10        4 hcc10         5 dih10  
 h    4 hc11        3 hcc11         2 dih11  
 h    4 hc12        3 hcc12         2 dih12  
 h    5 hc13        4 hcc13         3 dih13  
 h    5 hc14        4 hcc14         3 dih14  
 h    6 hc15        5 hcc15         4 dih15  
 h    6 hc16        5 hcc16         4 dih16  
 h    1 hc17        2 hco17         3 dih17  
 h    8 hc18        7 hco18         1 dih18  
 h    8 hc19        7 hco19         1 dih19  
 h    8 hc20        7 hco20         1 dih20  
 
oc2         1.429614
co3         1.428759
coc3        112.652
cc4         1.529760
cco4        111.297
dih4         60.857
cc5         1.536651
ccc5        110.157
dih5        -55.261
cc6         1.537961
ccc6        110.598
dih6         51.088
oc7         1.391825
oco7        108.621
dih7        179.289
co8         1.426037
coc8        114.619
dih8        -64.921
hc9         1.093360
hcc9        111.861
dih9       -173.349
hc10        1.104132
hcc10       110.168
dih10        66.540
hc11        1.097305
hcc11       109.612
dih11      -177.568
hc12        1.097388
hcc12       108.780
dih12        65.276
hc13        1.099652
hcc13       109.254
dih13       -69.450
hc14        1.095726
hcc14       110.778
dih14       173.555
hc15        1.095467
hcc15       111.256
dih15      -172.805
hc16        1.096372
hcc16       110.672
dih16        67.452
hc17        1.110476
hco17       107.581
dih17        60.280
hc18        1.091634
hco18       106.380
dih18      -174.639
hc19        1.100129
hco19       110.813
dih19       -56.035
hc20        1.094504
hco20       111.311
dih20        65.813
 
 
 

