$RunGaus
%mem=16000Mb
%nproc=8
# mp2/cc-pVTZ

2_methylaminotetrahydropyran_ax_single_point

0 1 
 c
 o   1 oc2     
 c    2 co3         1 coc3      
 c    3 cc4         2 cco4          1 dih4   
 c    4 cc5         3 ccc5          2 dih5   
 c    5 cc6         4 ccc6          3 dih6   
 n    1 nc7         2 nco7          3 dih7   
 c    7 cn8         1 cnc8          2 dih8   
 h    3 hc9         4 hcc9          5 dih9   
 h    3 hc10        4 hcc10         5 dih10  
 h    4 hc11        3 hcc11         2 dih11  
 h    4 hc12        3 hcc12         2 dih12  
 h    5 hc13        4 hcc13         3 dih13  
 h    5 hc14        4 hcc14         3 dih14  
 h    6 hc15        5 hcc15         4 dih15  
 h    6 hc16        5 hcc16         4 dih16  
 h    1 hc17        2 hco17         3 dih17  
 h    7 hn18        1 hnc18         2 dih18  
 h    8 hc19        7 hcn19         1 dih19  
 h    8 hc20        7 hcn20         1 dih20  
 h    8 hc21        7 hcn21         1 dih21  
 
oc2         1.423402
co3         1.438106
coc3        114.885
cc4         1.527960
cco4        111.836
dih4         57.252
cc5         1.536245
ccc5        110.137
dih5        -55.210
cc6         1.535246
ccc6        109.630
dih6         53.335
nc7         1.465282
nco7        108.653
dih7         69.054
cn8         1.462041
cnc8        115.064
dih8        167.049
hc9         1.093572
hcc9        111.614
dih9       -172.230
hc10        1.098150
hcc10       110.158
dih10        67.069
hc11        1.097394
hcc11       109.291
dih11      -177.532
hc12        1.098359
hcc12       109.162
dih12        65.408
hc13        1.096747
hcc13       109.512
dih13       -66.966
hc14        1.096367
hcc14       110.686
dih14       175.010
hc15        1.095586
hcc15       111.270
dih15      -176.154
hc16        1.097209
hcc16       109.689
dih16        66.044
hc17        1.104255
hco17       103.764
dih17      -172.493
hn18        1.017599
hnc18       106.614
dih18        45.451
hc19        1.093624
hcn19       108.946
dih19      -168.850
hc20        1.105719
hcn20       113.824
dih20       -48.101
hc21        1.094265
hcn21       110.601
dih21        73.506
 
 
 

