$RunGaus
%mem=16000Mb
%nproc=8
# mp2/cc-pVTZ

2_Me_THP_eq_single_point

0 1 
 c
 o   1 oc2     
 c    2 co3         1 coc3      
 c    3 cc4         2 cco4          1 dih4   
 c    4 cc5         3 ccc5          2 dih5   
 c    5 cc6         4 ccc6          3 dih6   
 c    1 cc7         2 cco7          3 dih7   
 h    3 hc8         4 hcc8          5 dih8   
 h    3 hc9         4 hcc9          5 dih9   
 h    4 hc10        3 hcc10         2 dih10  
 h    4 hc11        3 hcc11         2 dih11  
 h    5 hc12        4 hcc12         3 dih12  
 h    5 hc13        4 hcc13         3 dih13  
 h    6 hc14        5 hcc14         4 dih14  
 h    6 hc15        5 hcc15         4 dih15  
 h    1 hc16        2 hco16         3 dih16  
 h    7 hc17        1 hcc17         2 dih17  
 h    7 hc18        1 hcc18         2 dih18  
 h    7 hc19        1 hcc19         2 dih19  
 
oc2         1.433617
co3         1.426147
coc3        113.180
cc4         1.529887
cco4        111.817
dih4         60.286
cc5         1.536023
ccc5        110.152
dih5        -55.369
cc6         1.537102
ccc6        110.273
dih6         51.306
cc7         1.521796
cco7        107.040
dih7        176.721
hc8         1.093832
hcc8        111.627
dih8       -173.700
hc9         1.104505
hcc9        109.992
dih9         66.446
hc10        1.097416
hcc10       109.605
dih10      -177.784
hc11        1.097747
hcc11       108.817
dih11        65.105
hc12        1.099732
hcc12       109.263
dih12       -68.819
hc13        1.096250
hcc13       110.774
dih13       174.026
hc14        1.097332
hcc14       110.651
dih14      -173.394
hc15        1.098679
hcc15       109.869
dih15        68.351
hc16        1.106192
hco16       108.008
dih16        59.217
hc17        1.095294
hcc17       110.493
dih17      -177.466
hc18        1.093942
hcc18       110.487
dih18       -57.253
hc19        1.095184
hcc19       110.370
dih19        62.466
 
 
 

