$RunGaus
%mem=16000Mb
%nproc=8
# mp2/cc-pVTZ

2_methylcyclohexanone_ax_single_point

0 1 
 c
 c   1 cc2     
 c    2 cc3         1 ccc3      
 c    3 cc4         2 ccc4          1 dih4   
 c    4 cc5         3 ccc5          2 dih5   
 c    5 cc6         4 ccc6          3 dih6   
 o    2 oc7         3 occ7          4 dih7   
 c    1 cc8         2 ccc8          3 dih8   
 h    3 hc9         4 hcc9          5 dih9   
 h    3 hc10        4 hcc10         5 dih10  
 h    4 hc11        3 hcc11         2 dih11  
 h    4 hc12        3 hcc12         2 dih12  
 h    5 hc13        4 hcc13         3 dih13  
 h    5 hc14        4 hcc14         3 dih14  
 h    6 hc15        5 hcc15         4 dih15  
 h    6 hc16        5 hcc16         4 dih16  
 h    1 hc17        2 hcc17         3 dih17  
 h    8 hc18        1 hcc18         2 dih18  
 h    8 hc19        1 hcc19         2 dih19  
 h    8 hc20        1 hcc20         2 dih20  
 
cc2         1.530120
cc3         1.522661
ccc3        116.736
cc4         1.542966
ccc4        112.167
dih4         47.567
cc5         1.535005
ccc5        111.454
dih5        -51.776
cc6         1.536577
ccc6        110.991
dih6         56.380
oc7         1.220702
occ7        121.784
dih7       -133.248
cc8         1.545156
ccc8        109.920
dih8         79.815
hc9         1.093411
hcc9        112.270
dih9       -173.939
hc10        1.100230
hcc10       108.982
dih10        67.170
hc11        1.096133
hcc11       109.563
dih11      -174.743
hc12        1.098715
hcc12       109.074
dih12        69.016
hc13        1.098387
hcc13       109.596
dih13       -65.655
hc14        1.096530
hcc14       110.018
dih14       177.839
hc15        1.097362
hcc15       110.596
dih15      -178.687
hc16        1.098658
hcc16       108.594
dih16        64.921
hc17        1.095480
hcc17       105.901
dih17      -164.097
hc18        1.094577
hcc18       110.820
dih18        56.652
hc19        1.095528
hcc19       109.791
dih19       175.834
hc20        1.094721
hcc20       112.460
dih20       -64.337
 
 
 

