$RunGaus
%mem=16000Mb
%nproc=8
# mp2/cc-pVTZ

2_propanol_a_single_point

0 1 
 c
 c   1 cc2     
 o    2 oc3         1 occ3      
 c    2 cc4         3 cco4          1 dih4   
 h    1 hc5         2 hcc5          4 dih5   
 h    1 hc6         2 hcc6          4 dih6   
 h    1 hc7         2 hcc7          4 dih7   
 h    2 hc8         1 hcc8          5 dih8   
 h    4 hc9         2 hcc9          1 dih9   
 h    4 hc10        2 hcc10         1 dih10  
 h    4 hc11        2 hcc11         1 dih11  
 h    3 ho12        2 hoc12         1 dih12  
 
cc2         1.529776
oc3         1.435980
occ3        111.084
cc4         1.529803
cco4        111.078
dih4        126.292
hc5         1.093972
hcc5        110.457
dih5       -179.349
hc6         1.098088
hcc6        110.798
dih6        -59.386
hc7         1.095883
hcc7        111.065
dih7         60.198
hc8         1.096069
hcc8        108.975
dih8         59.548
hc9         1.093966
hcc9        110.448
dih9        179.325
hc10        1.095893
hcc10       111.067
dih10       -60.224
hc11        1.098072
hcc11       110.799
dih11        59.371
ho12        0.967406
hoc12       108.518
dih12       -62.950
 
 
 

