$RunGaus
%mem=8000Mb
%nproc=8
# mp2/cc-pVTZ

3_keto_cyclodecanone_single_point

0 1 
 c
 c   1 cc2     
 c    2 cc3         1 ccc3      
 c    3 cc4         2 ccc4          1 dih4   
 c    4 cc5         3 ccc5          2 dih5   
 c    5 cc6         4 ccc6          3 dih6   
 c    6 cc7         5 ccc7          4 dih7   
 c    7 cc8         6 ccc8          5 dih8   
 c    8 cc9         7 ccc9          6 dih9   
 o    9 oc10        8 occ10         7 dih10  
 c    1 cc11        2 ccc11         3 dih11  
 h    1 hc12       11 hcc12         9 dih12  
 h    1 hc13       11 hcc13         9 dih13  
 h   11 hc14        1 hcc14         2 dih14  
 h   11 hc15        1 hcc15         2 dih15  
 h    2 hc16        1 hcc16        11 dih16  
 h    2 hc17        1 hcc17        11 dih17  
 h    3 hc18        2 hcc18         1 dih18  
 h    3 hc19        2 hcc19         1 dih19  
 h    4 hc20        3 hcc20         2 dih20  
 h    4 hc21        3 hcc21         2 dih21  
 h    8 hc22        9 hcc22        11 dih22  
 h    8 hc23        9 hcc23        11 dih23  
 h    5 hc24        4 hcc24         3 dih24  
 h    5 hc25        4 hcc25         3 dih25  
 h    6 hc26        5 hcc26         4 dih26  
 h    6 hc27        5 hcc27         4 dih27  
 h    7 hc28        8 hcc28         9 dih28  
 h    7 hc29        8 hcc29         9 dih29  
 
cc2         1.542738
cc3         1.543210
ccc3        118.593
cc4         1.542952
ccc4        117.398
dih4         64.783
cc5         1.541864
ccc5        114.948
dih5         54.667
cc6         1.539623
ccc6        114.851
dih6       -156.893
cc7         1.542064
ccc7        116.083
dih7         62.484
cc8         1.545648
ccc8        116.193
dih8         60.515
cc9         1.528886
ccc9        118.693
dih9        -69.208
oc10        1.221890
occ10       120.405
dih10       132.857
cc11        1.544106
ccc11       117.955
dih11       -66.334
hc12        1.098561
hcc12       107.508
dih12      -176.926
hc13        1.095344
hcc13       107.829
dih13        68.666
hc14        1.101117
hcc14       108.361
dih14      -170.258
hc15        1.091630
hcc15       111.638
dih15        74.242
hc16        1.098079
hcc16       106.474
dih16       173.316
hc17        1.094987
hcc17       108.753
dih17        60.549
hc18        1.099342
hcc18       109.065
dih18       -58.782
hc19        1.099272
hcc19       107.204
dih19      -172.855
hc20        1.094039
hcc20       108.941
dih20       -69.362
hc21        1.098402
hcc21       108.415
dih21       176.879
hc22        1.095237
hcc22       106.636
dih22      -177.408
hc23        1.101198
hcc23       105.598
dih23        69.193
hc24        1.098033
hcc24       109.024
dih24        81.012
hc25        1.094500
hcc25       110.415
dih25       -33.845
hc26        1.099092
hcc26       109.478
dih26       -59.909
hc27        1.098523
hcc27       108.411
dih27      -175.180
hc28        1.097149
hcc28       106.969
dih28       170.447
hc29        1.096158
hcc29       109.856
dih29        56.812
 
 
 

