$RunGaus
%mem=8000Mb
%nproc=8
# mp2/cc-pVTZ

3_Me_THP_ax_single_point

0 1 
 c
 o   1 oc2     
 c    2 co3         1 coc3      
 c    3 cc4         2 cco4          1 dih4   
 c    4 cc5         3 ccc5          2 dih5   
 c    5 cc6         4 ccc6          3 dih6   
 c    6 cc7         5 ccc7          4 dih7   
 h    3 hc8         4 hcc8          5 dih8   
 h    3 hc9         4 hcc9          5 dih9   
 h    4 hc10        3 hcc10         2 dih10  
 h    4 hc11        3 hcc11         2 dih11  
 h    5 hc12        4 hcc12         3 dih12  
 h    5 hc13        4 hcc13         3 dih13  
 h    6 hc14        5 hcc14         4 dih14  
 h    1 hc15        2 hco15         3 dih15  
 h    7 hc16        6 hcc16         5 dih16  
 h    7 hc17        6 hcc17         5 dih17  
 h    7 hc18        6 hcc18         5 dih18  
 h    1 hc19        2 hco19         3 dih19  
 
oc2         1.426911
co3         1.426797
coc3        112.078
cc4         1.530582
cco4        111.636
dih4         60.432
cc5         1.538314
ccc5        110.289
dih5        -54.713
cc6         1.545656
ccc6        111.610
dih6         50.812
cc7         1.536727
ccc7        112.934
dih7         74.130
hc8         1.093812
hcc8        111.688
dih8       -173.143
hc9         1.104815
hcc9        110.072
dih9         66.849
hc10        1.097460
hcc10       109.553
dih10      -176.591
hc11        1.096561
hcc11       108.950
dih11        66.687
hc12        1.099434
hcc12       108.780
dih12       -69.221
hc13        1.096917
hcc13       110.606
dih13       174.041
hc14        1.099701
hcc14       108.185
dih14      -166.405
hc15        1.104169
hco15       109.257
dih15        60.569
hc16        1.094040
hcc16       111.671
dih16       -64.705
hc17        1.096089
hcc17       110.760
dih17       175.599
hc18        1.096009
hcc18       110.955
dih18        55.996
hc19        1.094469
hco19       105.827
dih19       176.744
 
 
 

