$RunGaus
%mem=8000Mb
%nproc=8
# mp2/cc-pVTZ

3_Me_THP_eq_single_point

0 1 
 c
 o   1 oc2     
 c    2 co3         1 coc3      
 c    3 cc4         2 cco4          1 dih4   
 c    4 cc5         3 ccc5          2 dih5   
 c    5 cc6         4 ccc6          3 dih6   
 c    6 cc7         5 ccc7          4 dih7   
 h    3 hc8         4 hcc8          5 dih8   
 h    3 hc9         4 hcc9          5 dih9   
 h    4 hc10        3 hcc10         2 dih10  
 h    4 hc11        3 hcc11         2 dih11  
 h    5 hc12        4 hcc12         3 dih12  
 h    5 hc13        4 hcc13         3 dih13  
 h    6 hc14        5 hcc14         4 dih14  
 h    1 hc15        2 hco15         3 dih15  
 h    7 hc16        6 hcc16         5 dih16  
 h    7 hc17        6 hcc17         5 dih17  
 h    7 hc18        6 hcc18         5 dih18  
 h    1 hc19        2 hco19         3 dih19  
 
oc2         1.425158
co3         1.425951
coc3        112.360
cc4         1.530125
cco4        111.640
dih4         59.753
cc5         1.536695
ccc5        110.330
dih5        -55.115
cc6         1.539636
ccc6        111.021
dih6         51.543
cc7         1.532428
ccc7        112.415
dih7       -174.998
hc8         1.093734
hcc8        111.660
dih8       -173.464
hc9         1.104681
hcc9        110.031
dih9         66.559
hc10        1.097412
hcc10       109.616
dih10      -177.471
hc11        1.097691
hcc11       108.823
dih11        65.497
hc12        1.100952
hcc12       109.356
dih12       -68.584
hc13        1.097256
hcc13       110.689
dih13       174.315
hc14        1.099844
hcc14       108.097
dih14        65.062
hc15        1.105646
hco15       109.543
dih15        61.863
hc16        1.097230
hcc16       111.203
dih16        61.286
hc17        1.095720
hcc17       110.952
dih17       -58.402
hc18        1.096266
hcc18       111.502
dih18      -178.424
hc19        1.094431
hco19       105.911
dih19       178.076
 
 
 

