$RunGaus
%mem=8000Mb
%nproc=8
# mp2/cc-pVTZ

4_Me_THP_ax_single_point

0 1 
 c
 o   1 oc2     
 c    2 co3         1 coc3      
 c    3 cc4         2 cco4          1 dih4   
 c    4 cc5         3 ccc5          2 dih5   
 c    5 cc6         4 ccc6          3 dih6   
 c    5 cc7         4 ccc7          3 dih7   
 h    7 hc8         5 hcc8          4 dih8   
 h    7 hc9         5 hcc9          4 dih9   
 h    7 hc10        5 hcc10         4 dih10  
 h    3 hc11        4 hcc11         5 dih11  
 h    3 hc12        4 hcc12         5 dih12  
 h    4 hc13        3 hcc13         2 dih13  
 h    4 hc14        3 hcc14         2 dih14  
 h    5 hc15        4 hcc15         3 dih15  
 h    6 hc16        5 hcc16         7 dih16  
 h    1 hc17        2 hco17         3 dih17  
 h    1 hc18        2 hco18         3 dih18  
 h    6 hc19        5 hcc19         7 dih19  
 
oc2         1.427080
co3         1.427100
coc3        111.964
cc4         1.531599
cco4        111.654
dih4        -60.233
cc5         1.545913
ccc5        112.092
dih5         55.300
cc6         1.545907
ccc6        108.667
dih6        -49.167
cc7         1.538522
ccc7        112.700
dih7         76.485
hc8         1.096095
hcc8        110.750
dih8         58.585
hc9         1.095000
hcc9        112.662
dih9        -61.721
hc10        1.096093
hcc10       110.750
dih10       177.973
hc11        1.103124
hcc11       110.948
dih11       -67.023
hc12        1.093750
hcc12       111.020
dih12       173.234
hc13        1.097433
hcc13       108.104
dih13       -65.133
hc14        1.098076
hcc14       109.532
dih14       178.424
hc15        1.098271
hcc15       107.775
dih15      -165.699
hc16        1.097434
hcc16       109.223
dih16       163.733
hc17        1.093752
hco17       105.906
dih17      -178.807
hc18        1.103127
hco18       109.402
dih18       -62.972
hc19        1.098076
hcc19       110.577
dih19        46.047
 
 
 

