$RunGaus
%mem=8000Mb
%nproc=8
# mp2/cc-pVTZ

C_Et_glycoside_g_single_point

0 1 
 c
 o   1 oc2     
 c    2 co3         1 coc3      
 c    3 cc4         2 cco4          1 dih4   
 c    4 cc5         3 ccc5          2 dih5   
 c    5 cc6         4 ccc6          3 dih6   
 c    3 cc7         4 ccc7          5 dih7   
 o    7 oc8         3 occ8          4 dih8   
 o    4 oc9         3 occ9          2 dih9   
 o    5 oc10        4 occ10         3 dih10  
 o    6 oc11        5 occ11         4 dih11  
 c    1 cc12        2 cco12         3 dih12  
 c   12 cc13        1 ccc13         2 dih13  
 h    3 hc14        4 hcc14         5 dih14  
 h    4 hc15        3 hcc15         2 dih15  
 h    5 hc16        4 hcc16         3 dih16  
 h    6 hc17        5 hcc17         4 dih17  
 h    1 hc18        2 hco18         3 dih18  
 h   12 hc19        1 hcc19         2 dih19  
 h   12 hc20        1 hcc20         2 dih20  
 h    7 hc21        3 hcc21         4 dih21  
 h    9 ho22        4 hoc22         3 dih22  
 h   10 ho23        5 hoc23         4 dih23  
 h   11 ho24        6 hoc24         5 dih24  
 h   13 hc25       12 hcc25         1 dih25  
 h   13 hc26       12 hcc26         1 dih26  
 h   13 hc27       12 hcc27         1 dih27  
 h    8 ho28        7 hoc28         3 dih28  
 h    7 hc29        3 hcc29         4 dih29  
 
oc2         1.439450
co3         1.424823
coc3        116.559
cc4         1.541035
cco4        110.892
dih4         57.432
cc5         1.527514
ccc5        110.689
dih5        -51.677
cc6         1.526042
ccc6        110.735
dih6         51.865
cc7         1.523746
ccc7        112.757
dih7       -172.352
oc8         1.424405
occ8        109.339
dih8         54.248
oc9         1.434612
occ9        112.354
dih9       -175.521
oc10        1.427327
occ10       111.748
dih10       171.386
oc11        1.423551
occ11       111.524
dih11      -176.496
cc12        1.534931
cco12       113.325
dih12        70.442
cc13        1.532835
ccc13       112.620
dih13        60.113
hc14        1.106254
hcc14       108.669
dih14        69.655
hc15        1.092860
hcc15       108.754
dih15        68.722
hc16        1.103944
hcc16       109.181
dih16       -67.908
hc17        1.099929
hcc17       107.528
dih17        62.888
hc18        1.095294
hco18       103.574
dih18      -172.909
hc19        1.097335
hcc19       110.823
dih19       -63.203
hc20        1.094866
hcc20       107.147
dih20      -178.310
hc21        1.098438
hcc21       108.013
dih21       175.293
ho22        0.968690
hoc22       108.933
dih22        58.450
ho23        0.968169
hoc23       107.989
dih23        46.072
ho24        0.968002
hoc24       107.333
dih24       -53.935
hc25        1.095047
hcc25       110.921
dih25       179.448
hc26        1.094466
hcc26       111.459
dih26       -59.966
hc27        1.096259
hcc27       110.957
dih27        59.773
ho28        0.964462
hoc28       109.100
dih28       178.495
hc29        1.098779
hcc29       108.331
dih29       -66.727
 
 
 

