$RunGaus
%mem=8000Mb
%nproc=4
# mp2/cc-pVTZ

ethanol_g_single_point

0 1 
 c
 c   1 cc2     
 o    2 oc3         1 occ3      
 h    3 ho4         2 hoc4          1 dih4   
 h    2 hc5         3 hco5          4 dih5   
 h    2 hc6         3 hco6          4 dih6   
 h    1 hc7         2 hcc7          3 dih7   
 h    1 hc8         2 hcc8          3 dih8   
 h    1 hc9         2 hcc9          3 dih9   
 
cc2         1.525551
oc3         1.429907
occ3        112.969
ho4         0.966145
hoc4        108.767
dih4        -61.262
hc5         1.093955
hco5        104.981
dih5        178.314
hc6         1.100552
hco6        110.392
dih6         62.861
hc7         1.097189
hcc7        111.214
dih7         63.307
hc8         1.094547
hcc8        110.656
dih8        -56.968
hc9         1.096378
hcc9        110.586
dih9       -177.239
 
 
 

