$RunGaus
%mem=8000Mb
%nproc=4
# mp2/cc-pVTZ

formic_acid_Z_single_point

0 1 
 c
 o   1 oc2     
 o    1 oc3         2 oco3      
 h    1 hc4         2 hco4          3 dih4   
 h    2 ho5         1 hoc5          3 dih5   
 
oc2         1.347304
oc3         1.207089
oco3        124.990
hc4         1.098256
hco4        109.873
dih4        180.000
ho5         0.974001
hoc5        107.796
dih5          0.000
 
 
 

