$RunGaus
%mem=8000Mb
%nproc=4
# mp2/cc-pVTZ

formic_acid_E_single_point

0 1 
 c
 o   1 oc2     
 o    1 oc3         2 oco3      
 h    1 hc4         2 hco4          3 dih4   
 h    2 ho5         1 hoc5          3 dih5   
 
oc2         1.353962
oc3         1.200066
oco3        122.379
hc4         1.105109
hco4        113.825
dih4        180.000
ho5         0.969127
hoc5        110.337
dih5        180.000
 
 
 

