$RunGaus
%mem=8000Mb
%nproc=4
# b3lyp/6-31+g(d,p)

Formaldehyde_dimethylacetal_g_ecl_single_point

0 1 
 c
 o   1 oc2     
 c    2 co3         1 coc3      
 o    3 oc4         2 oco4          1 dih4   
 c    4 co5         3 coc5          2 dih5   
 h    1 hc6         2 hco6          3 dih6   
 h    1 hc7         2 hco7          3 dih7   
 h    1 hc8         2 hco8          3 dih8   
 h    3 hc9         2 hco9          1 dih9   
 h    3 hc10        2 hco10         1 dih10  
 h    5 hc11        4 hco11         3 dih11  
 h    5 hc12        4 hco12         3 dih12  
 h    5 hc13        4 hco13         3 dih13  
 
oc2         1.422236
co3         1.399623
coc3        114.535
oc4         1.415238
oco4        112.629
dih4         66.168
co5         1.421829
coc5        116.016
dih5       -117.558
hc6         1.091547
hco6        106.698
dih6        175.110
hc7         1.096353
hco7        111.368
dih7        -65.814
hc8         1.101155
hco8        111.029
dih8         56.354
hc9         1.093421
hco9        105.163
dih9       -175.866
hc10        1.104583
hco10       110.469
dih10       -56.768
hc11        1.092103
hco11       106.565
dih11       177.009
hc12        1.098965
hco12       111.690
dih12       -64.421
hc13        1.099069
hco13       111.992
dih13        58.029
 
 
 

