$RunGaus
%mem=8000Mb
%nproc=4
# b3lyp/6-31+g(d,p)

Formaldehyde_dimethylacetal_g_g_single_point

0 1 
 c
 o   1 oc2     
 c    2 co3         1 coc3      
 o    3 oc4         2 oco4          1 dih4   
 c    4 co5         3 coc5          2 dih5   
 h    1 hc6         2 hco6          3 dih6   
 h    1 hc7         2 hco7          3 dih7   
 h    1 hc8         2 hco8          3 dih8   
 h    3 hc9         2 hco9          1 dih9   
 h    3 hc10        2 hco10         1 dih10  
 h    5 hc11        4 hco11         3 dih11  
 h    5 hc12        4 hco12         3 dih12  
 h    5 hc13        4 hco13         3 dih13  
 
oc2         1.425673
co3         1.406383
coc3        113.917
oc4         1.406382
oco4        114.053
dih4        -68.304
co5         1.425675
coc5        113.918
dih5        -68.304
hc6         1.091603
hco6        106.646
dih6       -176.920
hc7         1.099869
hco7        110.796
dih7        -58.144
hc8         1.096114
hco8        111.595
dih8         63.435
hc9         1.098288
hco9        110.877
dih9         50.199
hc10        1.098286
hco10       105.182
dih10       169.996
hc11        1.091603
hco11       106.647
dih11      -176.927
hc12        1.099869
hco12       110.796
dih12       -58.151
hc13        1.096114
hco13       111.595
dih13        63.428
 
 
 

