$RunGaus
%mem=8000Mb
%nproc=4
# mp2/cc-pVTZ

Formaldehyde_dimethylacetal_ag_single_point

0 1 
 c
 o   1 oc2     
 c    2 co3         1 coc3      
 o    3 oc4         2 oco4          1 dih4   
 c    4 co5         3 coc5          2 dih5   
 h    1 hc6         2 hco6          3 dih6   
 h    1 hc7         2 hco7          3 dih7   
 h    1 hc8         2 hco8          3 dih8   
 h    3 hc9         2 hco9          1 dih9   
 h    3 hc10        2 hco10         1 dih10  
 h    5 hc11        4 hco11         3 dih11  
 h    5 hc12        4 hco12         3 dih12  
 h    5 hc13        4 hco13         3 dih13  
 
oc2         1.426614
co3         1.386321
coc3        114.310
oc4         1.417779
oco4        110.040
dih4         67.113
co5         1.416901
coc5        112.805
dih5       -178.022
hc6         1.091398
hco6        106.420
dih6        174.180
hc7         1.094649
hco7        111.273
dih7        -66.315
hc8         1.100156
hco8        110.752
dih8         55.537
hc9         1.099107
hco9        106.516
dih9       -173.115
hc10        1.108595
hco10       111.082
dih10       -53.633
hc11        1.091541
hco11       106.987
dih11       179.674
hc12        1.100866
hco12       111.557
dih12       -61.303
hc13        1.101137
hco13       111.616
dih13        60.465
 
 
 

