$RunGaus
%mem=8000Mb
%nproc=4
# b3lyp/6-31+g(d,p)

Formaldehyde_dimethylacetal_aa_single_point

0 1 
 c
 o   1 oc2     
 c    2 co3         1 coc3      
 o    3 oc4         2 oco4          1 dih4   
 c    4 co5         3 coc5          2 dih5   
 h    1 hc6         2 hco6          3 dih6   
 h    1 hc7         2 hco7          3 dih7   
 h    1 hc8         2 hco8          3 dih8   
 h    3 hc9         2 hco9          1 dih9   
 h    3 hc10        2 hco10         1 dih10  
 h    5 hc11        4 hco11         3 dih11  
 h    5 hc12        4 hco12         3 dih12  
 h    5 hc13        4 hco13         3 dih13  
 
oc2         1.416868
co3         1.398074
coc3        112.643
oc4         1.398085
oco4        106.132
dih4       -179.981
co5         1.416849
coc5        112.643
dih5       -179.995
hc6         1.091100
hco6        106.725
dih6        179.997
hc7         1.100705
hco7        111.567
dih7        -60.946
hc8         1.100717
hco8        111.567
dih8         60.944
hc9         1.109428
hco9        110.533
dih9        -60.098
hc10        1.109411
hco10       110.534
dih10        60.136
hc11        1.091109
hco11       106.726
dih11      -180.000
hc12        1.100703
hco12       111.568
dih12       -60.946
hc13        1.100711
hco13       111.568
dih13        60.945
 
 
 

