$RunGaus
%mem=8000Mb
%nproc=4
# mp2/cc-pVTZ

glycolic_acid_cis1_single_point

0 1 
 c
 o   1 oc2     
 c    1 cc3         2 cco3      
 o    3 oc4         1 occ4          2 dih4   
 o    3 oc5         1 occ5          2 dih5   
 h    1 hc6         3 hcc6          5 dih6   
 h    1 hc7         3 hcc7          5 dih7   
 h    5 ho8         3 hoc8          1 dih8   
 h    2 ho9         1 hoc9          3 dih9   
 
oc2         1.406698
cc3         1.514737
cco3        111.382
oc4         1.214599
occ4        123.490
dih4          0.014
oc5         1.346570
occ5        112.748
dih5       -179.989
hc6         1.098821
hcc6        108.324
dih6        -58.023
hc7         1.098837
hcc7        108.318
dih7         58.044
ho8         0.972729
hoc8        107.906
dih8       -179.995
ho9         0.971547
hoc9        107.532
dih9         -0.033
 
 
 

