$RunGaus
%mem=8000Mb
%nproc=4
# mp2/cc-pVTZ

glycolic_acid_cis_single_point

0 1 
 c
 o   1 oc2     
 c    1 cc3         2 cco3      
 o    3 oc4         1 occ4          2 dih4   
 o    3 oc5         1 occ5          2 dih5   
 h    1 hc6         3 hcc6          5 dih6   
 h    1 hc7         3 hcc7          5 dih7   
 h    5 ho8         3 hoc8          1 dih8   
 h    2 ho9         1 hoc9          3 dih9   
 
oc2         1.409693
cc3         1.517856
cco3        109.123
oc4         1.205770
occ4        126.998
dih4         -0.006
oc5         1.360282
occ5        109.595
dih5        179.981
hc6         1.100263
hcc6        107.370
dih6        -57.641
hc7         1.100261
hcc7        107.372
dih7         57.601
ho8         0.972019
hoc8        107.205
dih8       -179.997
ho9         0.965198
hoc9        108.709
dih9       -179.999
 
 
 

