$RunGaus
%mem=8000Mb
%nproc=4
# mp2/cc-pVTZ

glycolic_acid_sk_single_point

0 1 
 c
 o   1 oc2     
 c    1 cc3         2 cco3      
 o    3 oc4         1 occ4          2 dih4   
 o    3 oc5         1 occ5          2 dih5   
 h    1 hc6         3 hcc6          5 dih6   
 h    1 hc7         3 hcc7          5 dih7   
 h    5 ho8         3 hoc8          1 dih8   
 h    2 ho9         1 hoc9          3 dih9   
 
oc2         1.413929
cc3         1.517472
cco3        111.974
oc4         1.214514
occ4        121.881
dih4       -179.969
oc5         1.343440
occ5        114.559
dih5          0.023
hc6         1.099438
hcc6        106.078
dih6        122.975
hc7         1.099417
hcc7        106.083
dih7       -122.939
ho8         0.972964
hoc8        106.678
dih8       -179.991
ho9         0.965409
hoc9        108.729
dih9       -179.895
 
 
 

