$RunGaus
%mem=8000Mb
%nproc=4
# mp2/cc-pVTZ

Me_acetate_Z_single_point

0 1 
 c
 c   1 cc2     
 o    2 oc3         1 occ3      
 c    3 co4         2 coc4          1 dih4   
 o    2 oc5         3 oco5          4 dih5   
 h    4 hc6         3 hco6          2 dih6   
 h    4 hc7         3 hco7          2 dih7   
 h    4 hc8         3 hco8          2 dih8   
 h    1 hc9         2 hcc9          5 dih9   
 h    1 hc10        2 hcc10         5 dih10  
 h    1 hc11        2 hcc11         5 dih11  
 
cc2         1.509208
oc3         1.353414
occ3        111.934
co4         1.441118
coc4        115.841
dih4        179.992
oc5         1.214559
oco5        123.202
dih5          0.010
hc6         1.089536
hco6        105.391
dih6       -179.992
hc7         1.092661
hco7        110.385
dih7        -60.337
hc8         1.092662
hco8        110.385
dih8         60.352
hc9         1.090349
hcc9        111.984
dih9        179.970
hc10        1.093838
hcc10       108.779
dih10       -58.374
hc11        1.093835
hcc11       108.780
dih11        58.311
 
 
 

