$RunGaus
%mem=8000Mb
%nproc=4
# mp2/cc-pVTZ

Me_acetate_E_lp_single_point

0 1 
 c
 c   1 cc2     
 o    2 oc3         1 occ3      
 c    3 co4         2 coc4          1 dih4   
 o    2 oc5         3 oco5          4 dih5   
 h    4 hc6         3 hco6          2 dih6   
 h    4 hc7         3 hco7          2 dih7   
 h    4 hc8         3 hco8          2 dih8   
 h    1 hc9         2 hcc9          5 dih9   
 h    1 hc10        2 hcc10         5 dih10  
 h    1 hc11        2 hcc11         5 dih11  
 
cc2         1.515823
oc3         1.362486
occ3        118.045
co4         1.432756
coc4        121.455
dih4         -0.059
oc5         1.209105
oco5        118.485
dih5       -179.989
hc6         1.090276
hco6        105.391
dih6       -179.962
hc7         1.094917
hco7        111.605
dih7        -61.629
hc8         1.094921
hco8        111.602
dih8         61.707
hc9         1.094952
hcc9        111.267
dih9        120.052
hc10        1.094963
hcc10       111.275
dih10      -120.031
hc11        1.089246
hcc11       108.129
dih11         0.010
 
 
 

