$RunGaus
%mem=8000Mb
%nproc=4
# mp2/cc-pVTZ

Me_formate_E_lp_single_point

0 1 
 c
 o   1 oc2     
 c    2 co3         1 coc3      
 o    3 oc4         2 oco4          1 dih4   
 h    1 hc5         2 hco5          3 dih5   
 h    1 hc6         2 hco6          3 dih6   
 h    1 hc7         2 hco7          3 dih7   
 h    3 hc8         2 hco8          1 dih8   
 
oc2         1.439046
co3         1.348006
coc3        116.744
oc4         1.202770
oco4        122.716
dih4       -179.991
hc5         1.089257
hco5        105.683
dih5       -179.996
hc6         1.094785
hco6        110.942
dih6        -61.370
hc7         1.094785
hco7        110.941
dih7         61.377
hc8         1.106705
hco8        113.566
dih8         -0.007
 
 
 

