$RunGaus
%mem=8000Mb
%nproc=4
# mp2/cc-pVTZ

me_vinyl_ether_s_cis_single_point

0 1 
 c
 c   1 cc2     
 o    2 oc3         1 occ3      
 c    3 co4         2 coc4          1 dih4   
 h    1 hc5         2 hcc5          3 dih5   
 h    1 hc6         2 hcc6          3 dih6   
 h    2 hc7         3 hco7          4 dih7   
 h    4 hc8         3 hco8          2 dih8   
 h    4 hc9         3 hco9          2 dih9   
 h    4 hc10        3 hco10         2 dih10  
 
cc2         1.339890
oc3         1.358605
occ3        128.165
co4         1.423664
coc4        117.139
dih4          0.000
hc5         1.083417
hcc5        118.726
dih5        180.000
hc6         1.083204
hcc6        123.804
dih6          0.000
hc7         1.086025
hco7        109.699
dih7        180.000
hc8         1.090453
hco8        106.150
dih8       -179.999
hc9         1.097265
hco9        110.889
dih9        -60.823
hc10        1.097265
hco10       110.889
dih10        60.825
 
 
 

