$RunGaus
%mem=8000Mb
%nproc=4
# mp2/cc-pVTZ

methyl_glycolate_cis_single_point

0 1 
 c
 o   1 oc2     
 c    2 co3         1 coc3      
 o    3 oc4         2 oco4          1 dih4   
 c    3 cc5         2 cco5          1 dih5   
 o    5 oc6         3 occ6          2 dih6   
 h    5 hc7         3 hcc7          2 dih7   
 h    5 hc8         3 hcc8          2 dih8   
 h    6 ho9         5 hoc9          3 dih9   
 h    1 hc10        2 hco10         3 dih10  
 h    1 hc11        2 hco11         3 dih11  
 h    1 hc12        2 hco12         3 dih12  
 
oc2         1.441346
co3         1.354288
coc3        115.834
oc4         1.207245
oco4        124.334
dih4         -0.003
cc5         1.520751
cco5        109.118
dih5        180.000
oc6         1.411248
occ6        109.108
dih6        179.990
hc7         1.100091
hcc7        107.546
dih7        -57.739
hc8         1.100089
hcc8        107.547
dih8         57.718
ho9         0.965099
hoc9        108.620
dih9        179.985
hc10        1.089480
hco10       105.432
dih10      -179.994
hc11        1.092639
hco11       110.361
dih11       -60.384
hc12        1.092639
hco12       110.360
dih12        60.396
 
 
 

