$RunGaus
%mem=12000Mb
%nproc=6
# mp2/cc-pVTZ

O-Me glycoside-a_single_point

0 1
 C              
 C                  1            B1
 C                  2            B2    1            A1
 C                  1            B3    2            A2    3            D1    0
 O                  3            B4    2            A3    1            D2    0
 C                  5            B5    3            A4    2            D3    0
 O                  6            B6    5            A5    3            D4    0
 C                  7            B7    6            A6    5            D5    0
 O                  2            B8    1            A7    4            D6    0
 O                  1            B9    2            A8    9            D7    0
 O                  4           B10    1            A9   10            D8    0
 H                 11           B11    4           A10    1            D9    0
 H                  9           B12    2           A11    1           D10    0
 H                 10           B13    1           A12    2           D11    0
 H                  1           B14   10           A13    2           D12    0
 H                  2           B15    1           A14   10           D13    0
 H                  3           B16    2           A15    1           D14    0
 H                  4           B17    1           A16   10           D15    0
 H                  6           B18    5           A17    3           D16    0
 H                  8           B19    7           A18    6           D17    0
 H                  8           B20    7           A19    6           D18    0
 H                  8           B21    7           A20    6           D19    0
 C                  3           B22    2           A21    1           D20    0
 O                 23           B23    3           A22    2           D21    0
 H                 24           B24   23           A23    3           D22    0
 H                 23           B25    3           A24    2           D23    0
 H                 23           B26    3           A25    2           D24    0

   B1             1.52718963
   B2             1.53200244
   B3             1.52733762
   B4             1.44647686
   B5             1.42376260
   B6             1.39633664
   B7             1.42674063
   B8             1.42212856
   B9             1.42706249
   B10            1.42443482
   B11            0.96553395
   B12            0.96826471
   B13            0.96772351
   B14            1.09833212
   B15            1.10208358
   B16            1.09688048
   B17            1.09909079
   B18            1.10123935
   B19            1.09112227
   B20            1.09563217
   B21            1.09935122
   B22            1.52353853
   B23            1.42232091
   B24            0.96740432
   B25            1.10074346
   B26            1.09168279
   A1           110.11652664
   A2           110.31530030
   A3           109.58106026
   A4           114.84809342
   A5           113.24639217
   A6           114.55767419
   A7           111.30931750
   A8           106.94941725
   A9           106.84142731
   A10          110.01674576
   A11          107.35721281
   A12          107.66958686
   A13          110.05211018
   A14          108.16244991
   A15          109.36977534
   A16          108.47522204
   A17          104.07449279
   A18          106.43648244
   A19          111.54061926
   A20          110.71852713
   A21          113.19693237
   A22          111.78874791
   A23          107.10437162
   A24          109.31034596
   A25          109.27129298
   D1            54.23439292
   D2           -54.90798578
   D3            60.44736647
   D4            60.50379587
   D5            67.58118323
   D6           174.11332198
   D7           -64.43854895
   D8            62.03105266
   D9          -165.04448870
   D10           49.73766363
   D11         -178.38619268
   D12         -118.38459259
   D13           56.63949283
   D14           64.98391196
   D15          -56.88662555
   D16         -179.48415137
   D17          173.97118280
   D18          -66.60564150
   D19           55.28261566
   D20         -172.83980636
   D21          179.71068810
   D22          -56.86055679
   D23           56.57653937
   D24          -62.05376644

