$RunGaus
%mem=12000Mb
%nproc=6
# mp2/cc-pVTZ

O-Me glycoside-g_single_point

0 1
 C              
 C                  1            B1
 C                  2            B2    1            A1
 C                  1            B3    2            A2    3            D1    0
 O                  3            B4    2            A3    1            D2    0
 C                  5            B5    3            A4    2            D3    0
 O                  6            B6    5            A5    3            D4    0
 C                  7            B7    6            A6    5            D5    0
 O                  2            B8    1            A7    4            D6    0
 O                  1            B9    2            A8    9            D7    0
 O                  4           B10    1            A9   10            D8    0
 H                  9           B11    2           A10    1            D9    0
 H                 10           B12    1           A11    2           D10    0
 H                 11           B13    4           A12    1           D11    0
 H                  1           B14   10           A13    2           D12    0
 H                  2           B15    1           A14   10           D13    0
 H                  3           B16    2           A15    1           D14    0
 H                  4           B17    1           A16   10           D15    0
 H                  6           B18    5           A17    3           D16    0
 H                  8           B19    7           A18    6           D17    0
 H                  8           B20    7           A19    6           D18    0
 H                  8           B21    7           A20    6           D19    0
 C                  3           B22    2           A21    1           D20    0
 O                 23           B23    3           A22    2           D21    0
 H                 24           B24   23           A23    3           D22    0
 H                 23           B25    3           A24    2           D23    0
 H                 23           B26    3           A25    2           D24    0

   B1             1.52718485
   B2             1.53200188
   B3             1.52734095
   B4             1.44646855
   B5             1.42381063
   B6             1.39631672
   B7             1.42674978
   B8             1.42213618
   B9             1.42706797
   B10            1.42445018
   B11            0.96826776
   B12            0.96772830
   B13            0.96553578
   B14            1.09833001
   B15            1.10207991
   B16            1.09687978
   B17            1.09908447
   B18            1.10123212
   B19            1.09112082
   B20            1.09562697
   B21            1.09934652
   B22            1.52354139
   B23            1.42231555
   B24            0.96740748
   B25            1.10074081
   B26            1.09168015
   A1           110.11577501
   A2           110.31553051
   A3           109.57977508
   A4           114.84569892
   A5           113.24618278
   A6           114.55827702
   A7           111.30990295
   A8           106.95116166
   A9           106.84272488
   A10          107.35648278
   A11          107.66897363
   A12          110.01511195
   A13          110.05150644
   A14          108.16410605
   A15          109.37068658
   A16          108.47380617
   A17          104.07324682
   A18          106.43659635
   A19          111.54029637
   A20          110.71886488
   A21          113.19729197
   A22          111.78815341
   A23          107.10429530
   A24          109.31056000
   A25          109.27113143
   D1            54.23428673
   D2           -54.91226371
   D3            60.45290864
   D4            60.50044938
   D5            67.57917896
   D6           174.11427987
   D7           -64.43754911
   D8            62.03073674
   D9            49.71909967
   D10         -178.39235165
   D11         -165.01413604
   D12         -118.38511036
   D13           56.64045090
   D14           64.98107599
   D15          -56.88693907
   D16         -179.48748968
   D17          173.94294989
   D18          -66.63440173
   D19           55.25497027
   D20         -172.84447522
   D21          179.71463358
   D22          -56.86641269
   D23           56.57968615
   D24          -62.05033374

