$RunGaus
%mem=8000Mb
%nproc=4
# mp2/cc-pVTZ

propen_3_ol_skew_a_single_point

0 1 
 c
 c   1 cc2     
 c    2 cc3         1 ccc3      
 o    3 oc4         2 occ4          1 dih4   
 h    1 hc5         2 hcc5          3 dih5   
 h    1 hc6         2 hcc6          3 dih6   
 h    2 hc7         3 hcc7          4 dih7   
 h    3 hc8         2 hcc8          1 dih8   
 h    3 hc9         2 hcc9          1 dih9   
 h    4 ho10        3 hoc10         2 dih10  
 
cc2         1.335052
cc3         1.499340
ccc3        124.361
oc4         1.433426
occ4        108.425
dih4       -127.853
hc5         1.085922
hcc5        121.605
dih5       -178.082
hc6         1.087862
hcc6        121.640
dih6          1.784
hc7         1.089316
hcc7        115.286
dih7         52.946
hc8         1.099611
hcc8        110.151
dih8         -6.144
hc9         1.101841
hcc9        109.315
dih9        112.353
ho10        0.965698
hoc10       108.934
dih10      -169.185
 
 
 

