$RunGaus
%mem=8000Mb
%nproc=4
# mp2/cc-pVTZ

THP_SMe_eq_single_point

0 1 
 o
 c   1 co2     
 c    2 cc3         1 cco3      
 c    3 cc4         2 ccc4          1 dih4   
 c    4 cc5         3 ccc5          2 dih5   
 c    5 cc6         4 ccc6          3 dih6   
 s    6 sc7         5 scc7          4 dih7   
 c    7 cs8         6 csc8          5 dih8   
 h    3 hc9         4 hcc9          5 dih9   
 h    3 hc10        4 hcc10         5 dih10  
 h    4 hc11        3 hcc11         2 dih11  
 h    4 hc12        3 hcc12         2 dih12  
 h    5 hc13        4 hcc13         3 dih13  
 h    5 hc14        4 hcc14         3 dih14  
 h    2 hc15        3 hcc15         4 dih15  
 h    2 hc16        3 hcc16         4 dih16  
 h    6 hc17        5 hcc17         4 dih17  
 h    8 hc18        7 hcs18         6 dih18  
 h    8 hc19        7 hcs19         6 dih19  
 h    8 hc20        7 hcs20         6 dih20  
 
co2         1.432276
cc3         1.528853
cco3        111.406
cc4         1.536255
ccc4        110.162
dih4        -55.456
cc5         1.538856
ccc5        110.671
dih5         51.327
cc6         1.532189
ccc6        110.119
dih6        -51.370
sc7         1.824242
scc7        110.203
dih7        176.625
cs8         1.827731
csc8         99.895
dih8        174.005
hc9         1.097395
hcc9        109.944
dih9        -68.571
hc10        1.097282
hcc10       110.898
dih10       172.854
hc11        1.099477
hcc11       109.329
dih11       -69.091
hc12        1.095984
hcc12       110.770
dih12       173.710
hc13        1.095430
hcc13       110.817
dih13      -172.850
hc14        1.097054
hcc14       109.968
dih14        68.148
hc15        1.093336
hcc15       111.888
dih15      -173.299
hc16        1.103831
hcc16       110.282
dih16        66.305
hc17        1.103692
hcc17       109.781
dih17       -64.585
hc18        1.091187
hcs18       110.418
dih18        60.714
hc19        1.092433
hcs19       106.708
dih19       179.512
hc20        1.093821
hcs20       111.141
dih20       -61.895
 
 
 

