$RunGaus
%mem=8000Mb
%nproc=4
# mp2/cc-pVTZ

THP_F_ax_single_point

0 1 
 o
 c   1 co2     
 c    2 cc3         1 cco3      
 c    3 cc4         2 ccc4          1 dih4   
 c    4 cc5         3 ccc5          2 dih5   
 c    5 cc6         4 ccc6          3 dih6   
 f    6 fc7         5 fcc7          4 dih7   
 h    3 hc8         4 hcc8          5 dih8   
 h    3 hc9         4 hcc9          5 dih9   
 h    4 hc10        3 hcc10         2 dih10  
 h    4 hc11        3 hcc11         2 dih11  
 h    5 hc12        4 hcc12         3 dih12  
 h    5 hc13        4 hcc13         3 dih13  
 h    2 hc14        3 hcc14         4 dih14  
 h    2 hc15        3 hcc15         4 dih15  
 h    6 hc16        5 hcc16         4 dih16  
 
co2         1.444685
cc3         1.526349
cco3        111.789
cc4         1.536010
ccc4        110.102
dih4        -55.130
cc5         1.535789
ccc5        109.750
dih5         53.429
cc6         1.525252
ccc6        111.483
dih6        -50.460
fc7         1.422587
fcc7        107.822
dih7        -71.481
hc8         1.097983
hcc8        109.955
dih8        -66.971
hc9         1.096829
hcc9        111.052
dih9        174.459
hc10        1.096895
hcc10       109.642
dih10       -66.851
hc11        1.095537
hcc11       110.880
dih11       175.242
hc12        1.094741
hcc12       111.698
dih12      -172.414
hc13        1.097666
hcc13       110.050
dih13        68.282
hc14        1.092184
hcc14       112.002
dih14      -172.217
hc15        1.097420
hcc15       110.893
dih15        66.419
hc16        1.092899
hcc16       113.099
dih16       171.956
 
 
 

