$RunGaus
%mem=8000Mb
%nproc=4
# mp2/cc-pVTZ

THP_SMe_ax_single_point

0 1 
 o
 c   1 co2     
 c    2 cc3         1 cco3      
 c    3 cc4         2 ccc4          1 dih4   
 c    4 cc5         3 ccc5          2 dih5   
 c    5 cc6         4 ccc6          3 dih6   
 s    6 sc7         5 scc7          4 dih7   
 c    7 cs8         6 csc8          5 dih8   
 h    3 hc9         4 hcc9          5 dih9   
 h    3 hc10        4 hcc10         5 dih10  
 h    4 hc11        3 hcc11         2 dih11  
 h    4 hc12        3 hcc12         2 dih12  
 h    5 hc13        4 hcc13         3 dih13  
 h    5 hc14        4 hcc14         3 dih14  
 h    2 hc15        3 hcc15         4 dih15  
 h    2 hc16        3 hcc16         4 dih16  
 h    6 hc17        5 hcc17         4 dih17  
 h    8 hc18        7 hcs18         6 dih18  
 h    8 hc19        7 hcs19         6 dih19  
 h    8 hc20        7 hcs20         6 dih20  
 
co2         1.436470
cc3         1.528024
cco3        111.796
cc4         1.536383
ccc4        110.197
dih4        -55.475
cc5         1.536883
ccc5        109.890
dih5         52.780
cc6         1.535682
ccc6        112.133
dih6        -50.828
sc7         1.862899
scc7        110.135
dih7        -76.127
cs8         1.827834
csc8         98.844
dih8       -172.106
hc9         1.098065
hcc9        109.871
dih9        -67.486
hc10        1.097122
hcc10       110.976
dih10       174.027
hc11        1.097358
hcc11       109.603
dih11       -68.096
hc12        1.096075
hcc12       110.721
dih12       174.334
hc13        1.094994
hcc13       111.464
dih13      -174.354
hc14        1.097955
hcc14       109.137
dih14        67.367
hc15        1.093061
hcc15       111.821
dih15      -172.759
hc16        1.099189
hcc16       110.379
dih16        66.263
hc17        1.093632
hcc17       110.492
dih17       166.927
hc18        1.093859
hcs18       111.042
dih18        64.029
hc19        1.092287
hcs19       107.013
dih19      -177.165
hc20        1.091776
hcs20       110.647
dih20       -58.174
 
 
 

