$RunGaus
%mem=8000Mb
%nproc=4
# mp2/cc-pVTZ

vinyl_alcohol_s_trans_single_point

0 1 
 c
 c   1 cc2     
 o    2 oc3         1 occ3      
 h    3 ho4         2 hoc4          1 dih4   
 h    1 hc5         2 hcc5          3 dih5   
 h    1 hc6         2 hcc6          3 dih6   
 h    2 hc7         1 hcc7          5 dih7   
 
cc2         1.333533
oc3         1.371639
occ3        122.148
ho4         0.963875
hoc4        110.213
dih4       -179.988
hc5         1.083072
hcc5        119.681
dih5        179.991
hc6         1.084711
hcc6        121.582
dih6         -0.004
hc7         1.088634
hcc7        122.195
dih7          0.000
 
 
 

