$RunGaus
%mem=8000Mb
%nproc=4
# b3lyp/6-31+g(d,p)

2-(1-Ad)-N-Me-pip-trans.hin

0  1
C          -2.92604         0.70136        -1.18046
C          -2.68461         2.21327        -1.27545
C          -1.17192         2.45133        -1.36041
C          -2.22880         0.15401         0.07633
C          -0.47572         1.85428        -0.12361
C          -0.68606         0.31658         0.01084
C          -2.36446        -0.00249        -2.42661
C          -0.13552        -0.29756        -1.29734
C          -0.85505         0.27018        -2.53381
C          -0.61336         1.78420        -2.62694
C           0.02273        -0.28277         1.28834
C           1.34597         0.46734         1.59254
C           2.07209        -0.02028         2.84956
C           2.31282        -1.51945         2.71306
N           0.27333        -1.73964         1.27580
C           0.96257        -2.20164         2.48174
Xx          0.63304        -1.85433         0.80769
H          -4.02683         0.51295        -1.11262
H          -3.10873         2.73183        -0.38304
H          -3.19843         2.63552        -2.17139
H          -0.97810         3.55221        -1.40841
H          -2.55033        -0.90071         0.18002
H          -2.62837         0.67211         0.97964
H          -0.84338         2.37362         0.79282
H           0.60333         2.10394        -0.24186
H          -2.88641         0.36621        -3.34131
H          -2.55377        -1.10054        -2.36710
H          -0.24864        -1.40286        -1.31393
H           0.95934        -0.10453        -1.37838
H          -0.45440        -0.22189        -3.45511
H          -1.10768         2.20180        -3.53594
H           0.47768         1.99490        -2.72882
H          -0.64447        -0.05954         2.15517
H           1.16539         1.55181         1.77463
H           2.03402         0.37029         0.72001
H           1.45308         0.18658         3.75550
H           3.04284         0.51690         2.97949
H           2.80203        -1.91652         3.63531
H           2.99678        -1.72467         1.85478
H           1.17231        -3.29621         2.40700
H           0.31145        -2.05202         3.37676
C          -0.92040        -2.56656         1.12650
H          -1.33498        -2.52253         0.09855
H          -0.68303        -3.64863         1.24752
H          -1.69971        -2.30368         1.87913

