$RunGaus
%mem=8000Mb
%nproc=4
# b3lyp/6-31+g(d,p)

3,3-Dimethil-N-methylpyrrolidine-nlp.hin

0  1
C           0.86717        -0.15757         0.48887
C           0.07083        -1.40231         0.03562
C          -1.30344        -0.85548        -0.39374
C           0.04769         0.98957        -0.13043
N          -1.31100         0.52639         0.03901
C          -2.31918         1.35124        -0.58626
H          -0.01639        -2.15703         0.85194
H           0.56557        -1.90428        -0.82904
C           2.31946        -0.16120        -0.01128
C           0.85053        -0.04846         2.02719
H          -2.14990        -1.40645         0.07869
H          -1.40689        -0.91535        -1.50406
H           0.28328         1.10775        -1.21493
H           0.21034         1.96282         0.38765
H          -2.16823         1.41729        -1.68854
H          -3.32918         0.92919        -0.38098
H          -2.28325         2.37717        -0.15453
H           2.37041        -0.23211        -1.12172
H           2.88246        -1.02601         0.40804
H           2.84610         0.77319         0.28908
H           1.39220        -0.90152         2.49606
H          -0.18754        -0.04574         2.43150
H           1.34595         0.88886         2.36892

