%mem=2000MB
%nprocshared=4
%rwf=/pub/tmp/
%NoSave
# b3lyp/6-31+g(d,p)

bicyclooctyl-CMe2Cl

0 1
 C              
 C                  1            B1
 C                  1            B2    2            A1
 C                  2            B3    1            A2    3            D1    0
 C                  3            B4    1            A3    2            D2    0
 C                  4            B5    2            A4    1            D3    0
 C                  3            B6    1            A5    2            D4    0
 C                  4            B7    2            A6    1            D5    0
 C                  4            B8    2            A7    1            D6    0
 C                  9            B9    4            A8    2            D7    0
 Cl                 9           B10    4            A9    2            D8    0
 C                  9           B11    4           A10    2            D9    0
 H                  1           B12    3           A11    7           D10    0
 H                  1           B13    3           A12    7           D11    0
 H                  2           B14    1           A13    3           D12    0
 H                  2           B15    1           A14    3           D13    0
 H                  3           B16    1           A15    2           D14    0
 H                  5           B17    3           A16    1           D15    0
 H                  5           B18    3           A17    1           D16    0
 H                  6           B19    4           A18    2           D17    0
 H                  6           B20    4           A19    2           D18    0
 H                  7           B21    3           A20    1           D19    0
 H                  7           B22    3           A21    1           D20    0
 H                  8           B23    4           A22    2           D21    0
 H                  8           B24    4           A23    2           D22    0
 H                 10           B25    9           A24    4           D23    0
 H                 10           B26    9           A25    4           D24    0
 H                 10           B27    9           A26    4           D25    0
 H                 12           B28    9           A27    4           D26    0
 H                 12           B29    9           A28    4           D27    0
 H                 12           B30    9           A29    4           D28    0

   B1             1.55268540
   B2             1.53012938
   B3             1.55195225
   B4             1.52901314
   B5             1.54840413
   B6             1.52901314
   B7             1.54840413
   B8             1.56991594
   B9             1.53202529
   B10            1.85357425
   B11            1.53202529
   B12            1.08660331
   B13            1.08660331
   B14            1.08393415
   B15            1.08393415
   B16            1.08717055
   B17            1.08649617
   B18            1.08679952
   B19            1.08222479
   B20            1.08362143
   B21            1.08679952
   B22            1.08649617
   B23            1.08362143
   B24            1.08222479
   B25            1.08295889
   B26            1.08432752
   B27            1.08040900
   B28            1.08295889
   B29            1.08040900
   B30            1.08432752
   A1           110.39518548
   A2           110.81506240
   A3           109.07011995
   A4           107.20142155
   A5           109.07011995
   A6           107.20142155
   A7           110.15857953
   A8           114.19813932
   A9           109.00883583
   A10          114.19813932
   A11          109.73987274
   A12          109.73987274
   A13          109.43770205
   A14          109.43770205
   A15          109.86915155
   A16          109.65533876
   A17          109.85102317
   A18          109.72083880
   A19          109.68498242
   A20          109.85102317
   A21          109.65533876
   A22          109.68498242
   A23          109.72083880
   A24          109.49862806
   A25          110.32652715
   A26          112.45217658
   A27          109.49862806
   A28          112.45217658
   A29          110.32652715
   D1             0.00000000
   D2            59.28932023
   D3           -58.04779314
   D4           -59.28932023
   D5            58.04779314
   D6           180.00000000
   D7            62.98277843
   D8           180.00000000
   D9           -62.98277843
   D10           62.35882271
   D11          179.06253682
   D12         -121.66126404
   D13          121.66126404
   D14          180.00000000
   D15          179.83018039
   D16           63.11584252
   D17         -178.93727287
   D18          -62.02947762
   D19          -63.11584252
   D20         -179.83018039
   D21           62.02947762
   D22          178.93727287
   D23          177.58982071
   D24          -63.85069931
   D25           57.83847789
   D26         -177.58982071
   D27          -57.83847789
   D28           63.85069931

