%mem=2000MB
%nprocshared=4
%rwf=/pub/tmp/
%NoSave
# opt=modredundant b3lyp/6-31+g(d,p)

diMe-sulfone-ts

0 1
 C              
 S                  1    1.78499552
 C                  2    1.78464590    1  103.99368381
 O                  2    1.44938470    1  107.90860664    3  115.85298144    0
 O                  2    1.44933571    1  108.53738276    4  127.79184311    0
 H                  1    1.11347295    2  109.83825420    5  -55.74766412    0
 H                  1    1.11472104    2  109.73744910    5 -176.05476980    0
 H                  3    1.11338762    2  109.49354207    1 -126.85911243    0
 H                  3    1.11343837    2  110.89420802    1   -6.74196885    0
 H                  3    1.11324660    2  109.88465306    1  114.64467190    0
 H                  1    1.11262482    2  109.41948197    5   64.12060622    0

D 5 2 3 8 F

