$RunGaus
%mem=8000Mb
%nproc=4
# b3lyp/6-31+g(d,p)

methylformate-H-Lp-ecl.hin

0  1
C          -1.70128         0.70408        -0.03122
O          -1.74919         1.75930        -0.61904
O          -0.58305         0.04710         0.37838
C           0.67990         0.62955         0.10592
H          -2.60604         0.11723         0.25877
H           1.27628        -0.08275        -0.51212
H           0.60287         1.60009        -0.43581
H           1.21261         0.79636         1.07204
Xx         -0.61279        -0.44058         0.02958
Xx         -0.65075         0.08342         0.97376

