%Mem=105Gb
%NProcShared=24
# opt=modredundant b3lyp/6-31+g(d,p)

methanethiol-ecl

0 1
 C                 -0.10776923   -1.21646154    0.00103846
 S                 -0.00876923    0.66953846    0.00003846
 H                  1.16623077    1.32253846   -0.01096154
 H                  0.92423077   -1.63446154   -0.00796154
 H                 -0.64376923   -1.55046154    0.91703846
 H                 -0.65976923   -1.55146154   -0.90496154

D 3 2 1 4 F

