$RunGaus
%mem=8000Mb
%nproc=4
# b3lyp/6-31+g(d,p)

N-methylpyrrolidine-lp.hin

0  1
C           0.85433        -0.11314         0.39592
C          -0.00334        -1.38272         0.23432
C          -1.30065        -0.87853        -0.41887
C          -0.02574         1.00987        -0.17706
N          -1.37938         0.51297        -0.01518
C          -2.37235         1.27671        -0.74437
H          -0.22287        -1.83070         1.23322
H           0.49912        -2.15738        -0.39269
H          -2.19973        -1.45031        -0.08638
H          -1.21681        -0.95737        -1.52997
H           0.20870         1.15523        -1.25951
H           0.11738         1.98134         0.35360
H          -2.16810         1.27905        -1.84024
H          -3.38629         0.84667        -0.57306
H          -2.38410         2.33107        -0.38308
H           1.82871        -0.18792        -0.14325
H           1.06654         0.07529         1.47580
Xx         -1.52099         0.53364         0.56997

