# opt b3lyp/6-31+g(d,p)

N-Me-acetamide-EZ

0 1
 C                  0.09595000   -1.42210000   -0.94962500
 C                 -0.39805000   -0.41010000    0.06637500
 N                  0.56895000    0.38090000    0.64737500
 C                  0.93195000    1.64790000    0.06237500
 O                 -1.56905000   -0.31310000    0.34637500
 H                  0.59995000   -0.90110000   -1.79562500
 H                  0.81895000   -2.12110000   -0.47262500
 H                 -0.74805000   -2.02110000   -1.36362500
 H                  1.00895000    0.03790000    1.50337500
 H                  0.33695000    1.86890000   -0.85362500
 H                  0.76095000    2.45490000    0.80937500
 H                  2.01295000    1.62590000   -0.20462500

