%mem=2000MB
%nprocshared=4
%rwf=/pub/tmp/
%NoSave
# opt=modredundant b3lyp/6-31+g(d,p)

tBu-CMe2Cl-ts

0 1
 C              
 C                  1    1.58240987
 C                  2    1.54834686    1  114.04244017
 C                  2    1.54790988    1  114.04573715    3  122.05417463    0
 Cl                 2    1.82417351    1  112.36900236    4  119.00974591    0
 H                  3    1.11468067    2  112.05303164    1 -179.48830906    0
 H                  3    1.11341457    2  112.55699911    1  -60.25493998    0
 H                  3    1.11298248    2  111.72586430    1   62.37906586    0
 H                  4    1.11496143    2  112.03231939    1  179.51399155    0
 H                  4    1.11301797    2  111.79872356    1  -62.37644434    0
 H                  4    1.11375671    2  112.54024735    1   60.26101742    0
 C                  1    1.55023547    2  112.92961660    4    1.10148512    0
 C                  1    1.55023740   12  105.66870130    2 -123.92160244    0
 C                  1    1.55142966   12  105.43370598   13 -111.30392086    0
 H                 12    1.11463581    1  111.76817330   13   55.53702927    0
 H                 12    1.11306828    1  112.21685503   13  174.09998022    0
 H                 12    1.11285309    1  112.08863033   13  -62.90093495    0
 H                 13    1.11427196    1  111.81723332   12  -55.51979525    0
 H                 13    1.11318282    1  112.08576281   12   62.92630761    0
 H                 13    1.11277581    1  112.25092900   12 -174.06662538    0
 H                 14    1.11420151    1  111.85065112   12   55.69067168    0
 H                 14    1.11359643    1  112.05104063   12  174.27177109    0
 H                 14    1.11445996    1  111.95278980   12  -62.72072448    0

D 5 2 1 14 F

