$RunGaus
%mem=16000Mb
%nproc=8
# mp2/cc-pVTZ

2_methylpropenal_cis_single_point

0 1 
 c
 c   1 cc2     
 c    2 cc3         1 ccc3      
 c    2 cc4         3 ccc4          1 dih4   
 o    4 oc5         2 occ5          3 dih5   
 h    1 hc6         2 hcc6          4 dih6   
 h    1 hc7         2 hcc7          4 dih7   
 h    4 hc8         2 hcc8          1 dih8   
 h    3 hc9         2 hcc9          1 dih9   
 h    3 hc10        2 hcc10         1 dih10  
 h    3 hc11        2 hcc11         1 dih11  
 
cc2         1.342164
cc3         1.507859
ccc3        124.545
cc4         1.494495
ccc4        116.441
dih4        179.994
oc5         1.217708
occ5        125.330
dih5        179.901
hc6         1.086153
hcc6        121.767
dih6       -179.989
hc7         1.085824
hcc7        120.202
dih7          0.010
hc8         1.111990
hcc8        114.853
dih8       -179.932
hc9         1.097234
hcc9        111.207
dih9        120.520
hc10        1.097234
hcc10       111.206
dih10      -120.512
hc11        1.092810
hcc11       111.347
dih11         0.003
 
 
 
 

