$RunGaus
%mem=16000Mb
%nproc=8
# mp2/cc-pVTZ

2_methylpropenoic_acid_cis_single_point

0 1 
 c
 c   1 cc2     
 c    2 cc3         1 ccc3      
 c    2 cc4         3 ccc4          1 dih4   
 o    4 oc5         2 occ5          3 dih5   
 o    4 oc6         2 occ6          1 dih6   
 h    1 hc7         2 hcc7          4 dih7   
 h    1 hc8         2 hcc8          4 dih8   
 h    3 hc9         2 hcc9          1 dih9   
 h    3 hc10        2 hcc10         1 dih10  
 h    3 hc11        2 hcc11         1 dih11  
 h    5 ho12        4 hoc12         2 dih12  
 
cc2         1.340993
cc3         1.507541
ccc3        124.022
cc4         1.496140
ccc4        118.893
dih4       -180.000
oc5         1.360721
occ5        112.235
dih5          0.004
oc6         1.216150
occ6        126.088
dih6          0.004
hc7         1.085654
hcc7        121.147
dih7        179.999
hc8         1.084850
hcc8        120.664
dih8          0.001
hc9         1.095147
hcc9        111.228
dih9        120.625
hc10        1.095148
hcc10       111.228
dih10      -120.628
hc11        1.092951
hcc11       110.432
dih11        -0.002
ho12        0.971931
hoc12       106.602
dih12      -179.999
 
 
 
 

