$RunGaus
%mem=16000Mb
%nproc=8
# mp2/cc-pVTZ

acrolein_t_single_point

0 1 
 c
 c   1 cc2     
 c    2 cc3         1 ccc3      
 o    3 oc4         2 occ4          1 dih4   
 h    3 hc5         2 hcc5          1 dih5   
 h    2 hc6         3 hcc6          4 dih6   
 h    1 hc7         2 hcc7          3 dih7   
 h    1 hc8         2 hcc8          3 dih8   
 
cc2         1.340479
cc3         1.474506
ccc3        121.079
oc4         1.218473
occ4        124.140
dih4       -179.975
hc5         1.111836
hcc5        115.188
dih5         -0.010
hc6         1.087362
hcc6        116.567
dih6          0.025
hc7         1.085415
hcc7        122.129
dih7        179.997
hc8         1.088194
hcc8        121.065
dih8          0.006
 
 
 
 

