$RunGaus
%mem=4000Mb
%nproc=4
# b3lyp/6-31+g(d,p)

1,2-ethanediol-g-,g+,a

0 1
 C                 -0.68671600    0.60311700   -0.26928800
 C                  0.73144300    0.56876500    0.27407700
 O                 -1.34115000   -0.57642400    0.21673000
 O                  1.45041400   -0.56528400   -0.19273800
 H                 -1.20110800    1.50962800    0.08235100
 H                 -0.66163700    0.60706400   -1.36739300
 H                  1.28034300    1.45220300   -0.06614600
 H                  0.69781200    0.58574300    1.37397600
 H                 -2.17118300   -0.70827500   -0.25671000
 H                  0.91330100   -1.34398700    0.01325200

