# opt uff

1,2-dichloroethane-a

0 1
 C                 -0.02614000   -0.76750000   -0.00950000
 C                  0.02686000    0.76750000    0.00950000
 Cl                 1.60686000   -1.46150000    0.28950000
 Cl                -1.60714000    1.46150000   -0.28950000
 H                 -0.69214000   -1.16650000    0.78950000
 H                 -0.36014000   -1.15450000   -1.00050000
 H                  0.35986000    1.15450000    1.00050000
 H                  0.69286000    1.16650000   -0.78950000

 1 2 1.0 3 1.0 5 1.0 6 1.0
 2 4 1.0 7 1.0 8 1.0
 3
 4
 5
 6
 7
 8

