# opt uff

chloropropane-g

0 1
 C                 -0.81192857   -0.44050000    0.22383333
 C                 -0.73192857    1.09150000    0.19883333
 Cl                 0.81107143   -1.20450000    0.36583333
 H                 -1.39892857   -0.79450000    1.10283333
 H                 -1.27892857   -0.83950000   -0.70516667
 H                 -1.77092857    1.49850000    0.23883333
 H                 -0.20792857    1.46250000    1.11283333
 C                 -0.04492857    1.64350000   -1.05716667
 H                 -0.05992857    2.75850000   -1.06116667
 H                  1.02107143    1.32750000   -1.11816667
 H                 -0.55992857    1.29650000   -1.98216667

 1 2 1.0 3 1.0 4 1.0 5 1.0
 2 6 1.0 7 1.0 8 1.0
 3
 4
 5
 6
 7
 8 9 1.0 10 1.0 11 1.0
 9
 10
 11

