# opt uff

adrenaline-C

1 1
 C                 -1.50111111   -1.98839394   -0.82219192
 C                 -1.36111111   -1.34639394    0.56580808
 H                 -2.36711111   -0.99639394    0.90680808
 O                 -0.96511111   -2.32739394    1.50080808
 C                 -0.42211111   -0.15739394    0.55180808
 N                 -0.12711111   -2.44139394   -1.23119192
 H                 -2.19011111   -2.86339394   -0.78419192
 H                 -1.88611111   -1.24839394   -1.56219192
 C                  0.93588889   -0.28039394    0.85580808
 C                  1.77088889    0.83560606    0.82280808
 C                  1.28788889    2.10360606    0.48380808
 C                 -0.07211111    2.24260606    0.16780808
 C                 -0.89611111    1.11160606    0.20580808
 O                 -0.58311111    3.45960606   -0.17419192
 O                  2.11388889    3.18660606    0.45380808
 H                  0.14988889    4.05060606   -0.16319192
 H                  2.98788889    2.84160606    0.48480808
 H                 -0.84011111   -1.89639394    2.32880808
 H                  0.52788889   -1.62739394   -1.23519192
 H                  0.25888889   -3.09439394   -0.51219192
 C                 -0.11311111   -3.10439394   -2.57819192
 H                  1.36688889   -1.26039394    1.11780808
 H                  2.83988889    0.71560606    1.06680808
 H                 -1.96011111    1.23360606   -0.05219192
 H                 -0.46611111   -2.39339394   -3.35919192
 H                 -0.76111111   -4.01039394   -2.56719192
 H                  0.92988889   -3.41039394   -2.81419192

 1 2 1.0 6 1.0 7 1.0 8 1.0
 2 3 1.0 4 1.0 5 1.0
 3
 4 18 1.0
 5 9 1.5 13 1.5
 6 19 1.0 20 1.0 21 1.0
 7
 8
 9 10 1.5 22 1.0
 10 11 1.5 23 1.0
 11 12 1.5 15 1.0
 12 13 1.5 14 1.0
 13 24 1.0
 14 16 1.0
 15 17 1.0
 16
 17
 18
 19
 20
 21 25 1.0 26 1.0 27 1.0
 22
 23
 24
 25
 26
 27

