# opt uff

ephedrine-C

1 1
 C                 -1.33116484   -1.21465934   -0.42480220
 C                 -0.90616484    0.19834066   -0.85980220
 C                  0.54383516    0.49634066   -0.52780220
 N                 -0.92116484   -1.47865934    1.00319780
 C                  0.91183516    1.34234066    0.52519780
 C                  2.25483516    1.59234066    0.81419780
 C                  3.25883516    0.99534066    0.05119780
 C                  2.90883516    0.14734066   -1.00080220
 C                  1.56383516   -0.09665934   -1.28180220
 H                 -0.96916484   -2.50965934    1.17219780
 H                  0.09383516   -1.25165934    1.11019780
 C                 -1.69116484   -0.78865934    2.09319780
 H                  0.14483516    1.82634066    1.15019780
 H                  1.30683516   -0.77265934   -2.11480220
 H                 -1.24816484   -1.08965934    3.06819780
 H                 -1.61416484    0.31634066    2.01319780
 H                 -2.75716484   -1.10565934    2.09319780
 H                  2.52383516    2.26134066    1.64919780
 H                  3.69683516   -0.33065934   -1.60680220
 H                  4.31983516    1.19034066    0.27919780
 O                 -1.79116484    1.18034066   -0.36580220
 H                 -1.00716484    0.26334066   -1.97080220
 H                 -1.47216484    2.02034066   -0.64880220
 C                 -2.82116484   -1.52665934   -0.60080220
 H                 -0.75116484   -1.94965934   -1.03480220
 H                 -3.09716484   -1.49165934   -1.67980220
 H                 -3.47816484   -0.79565934   -0.07880220
 H                 -3.06816484   -2.54565934   -0.22480220

 1 2 1.0 4 1.0 24 1.0 25 1.0
 2 3 1.0 21 1.0 22 1.0
 3 5 1.5 9 1.5
 4 10 1.0 11 1.0 12 1.0
 5 6 1.5 13 1.0
 6 7 1.5 18 1.0
 7 8 1.5 20 1.0
 8 9 1.5 19 1.0
 9 14 1.0
 10
 11
 12 15 1.0 16 1.0 17 1.0
 13
 14
 15
 16
 17
 18
 19
 20
 21 23 1.0
 22
 23
 24 26 1.0 27 1.0 28 1.0
 25
 26
 27
 28

