# opt uff

ephedrine-A

1 1
 C                 -1.71587912   -1.09791209   -0.00176923
 C                 -1.31787912    0.29108791   -0.53176923
 C                  0.10012088    0.74208791   -0.24976923
 N                 -0.93987912   -2.14791209   -0.75776923
 C                 -1.59387912   -1.32091209    1.50923077
 H                 -2.78387912   -1.25991209   -0.28676923
 C                  0.46812088    1.25308791    1.00023077
 C                  1.77612088    1.67008791    1.25323077
 C                  2.74212088    1.59208791    0.24923077
 C                  2.38812088    1.10208791   -1.00776923
 C                  1.07812088    0.68708791   -1.25276923
 H                 -1.52787912   -3.00991209   -0.82976923
 H                 -0.83087912   -1.83291209   -1.74876923
 C                  0.40612088   -2.54391209   -0.21876923
 H                 -0.27787912    1.33408791    1.80723077
 H                  0.82112088    0.30008791   -2.25276923
 H                  0.88812088   -3.22291209   -0.95576923
 H                  1.06812088   -1.66491209   -0.06876923
 H                  0.29512088   -3.10391209    0.73623077
 H                  2.04712088    2.06508791    2.24723077
 H                  3.14512088    1.04208791   -1.80776923
 H                  3.77612088    1.92108791    0.44623077
 O                 -2.23487912    1.24408791   -0.03176923
 H                 -1.47087912    0.29908791   -1.63876923
 H                 -1.95387912    2.09408791   -0.32676923
 H                 -2.25187912   -0.61191209    2.06223077
 H                 -0.55987912   -1.16491209    1.88823077
 H                 -1.91287912   -2.35091209    1.79123077

 1 2 1.0 4 1.0 5 1.0 6 1.0
 2 3 1.0 23 1.0 24 1.0
 3 7 1.5 11 1.5
 4 12 1.0 13 1.0 14 1.0
 5 26 1.0 27 1.0 28 1.0
 6
 7 8 1.5 15 1.0
 8 9 1.5 20 1.0
 9 10 1.5 22 1.0
 10 11 1.5 21 1.0
 11 16 1.0
 12
 13
 14 17 1.0 18 1.0 19 1.0
 15
 16
 17
 18
 19
 20
 21
 22
 23 25 1.0
 24
 25
 26
 27
 28

