# opt uff

noradrenaline-B

1 1
 C                 -1.08592308   -2.38237363   -0.99780220
 C                 -1.13492308   -1.53337363    0.27919780
 H                 -2.17992308   -1.18137363    0.45619780
 O                 -0.78692308   -2.33137363    1.39119780
 C                 -0.20392308   -0.34237363    0.18319780
 N                 -2.12792308   -3.44737363   -0.84780220
 H                 -1.33492308   -1.77037363   -1.89580220
 H                 -0.09392308   -2.86737363   -1.14380220
 C                  1.18207692   -0.51337363    0.14919780
 C                  2.02907692    0.59062637    0.05619780
 C                  1.52707692    1.89462637   -0.00780220
 C                  0.13707692    2.08262637    0.02219780
 C                 -0.69892308    0.96362637    0.11519780
 O                 -0.39292308    3.33762637   -0.04080220
 O                  2.36307692    2.96562637   -0.09780220
 H                  0.34407692    3.91662637   -0.12680220
 H                  3.21807692    2.60962637   -0.26280220
 H                 -0.78192308   -1.77437363    2.15019780
 H                 -2.17492308   -4.06837363   -1.68280220
 H                 -1.94492308   -4.05937363   -0.02480220
 H                 -3.08092308   -3.04437363   -0.71680220
 H                  1.61707692   -1.52537363    0.19719780
 H                  3.12007692    0.43162637    0.03319780
 H                 -1.78792308    1.12962637    0.13319780

 1 2 1.0 6 1.0 7 1.0 8 1.0
 2 3 1.0 4 1.0 5 1.0
 3
 4 18 1.0
 5 9 1.5 13 1.5
 6 19 1.0 20 1.0 21 1.0
 7
 8
 9 10 1.5 22 1.0
 10 11 1.5 23 1.0
 11 12 1.5 15 1.0
 12 13 1.5 14 1.0
 13 24 1.0
 14 16 1.0
 15 17 1.0
 16
 17
 18
 19
 20
 21
 22
 23
 24

