$RunGaus
%mem=8000Mb
%nproc=8
%RWF=/media/S_/Gaussian_scratch/,130GB,/media/TOSHIBA\ EXT/,120GB,/home/scratch/stylianakis/,50GB,
%NoSave
# opt b3lyp/6-31+g(d,p)

Ph3SiO-cycl-ax_single_point

0 1 
 c
 c   1 cc2     
 c    2 cc3         1 ccc3      
 c    3 cc4         2 ccc4          1 dih4   
 c    4 cc5         3 ccc5          2 dih5   
 c    5 cc6         4 ccc6          3 dih6   
si    4 sic7        5 sicc7         6 dih7   
 c    7 csi8        4 csic8         5 dih8   
 c    8 cc9         7 ccsi9         4 dih9   
 c    9 cc10        8 ccc10         7 dih10  
 c   10 cc11        9 ccc11         8 dih11  
 c   11 cc12       10 ccc12         9 dih12  
 c   12 cc13       11 ccc13        10 dih13  
 o    7 osi14       8 osic14        9 dih14  
 c   14 co15        7 cosi15        8 dih15  
 c   15 cc16       14 cco16         7 dih16  
 c   16 cc17       15 ccc17        14 dih17  
 c   17 cc18       16 ccc18        15 dih18  
 c   18 cc19       17 ccc19        16 dih19  
 c   19 cc20       18 ccc20        17 dih20  
 c    7 csi21      14 csio21       15 dih21  
 c   21 cc22        7 ccsi22       14 dih22  
 c   22 cc23       21 ccc23         7 dih23  
 c   23 cc24       22 ccc24        21 dih24  
 c   24 cc25       23 ccc25        22 dih25  
 c   25 cc26       24 ccc26        23 dih26  
 h   17 hc27       18 hcc27        19 dih27  
 h   17 hc28       18 hcc28        19 dih28  
 h   18 hc29       17 hcc29        16 dih29  
 h   18 hc30       17 hcc30        16 dih30  
 h   19 hc31       18 hcc31        17 dih31  
 h   19 hc32       18 hcc32        17 dih32  
 h   16 hc33       17 hcc33        18 dih33  
 h   16 hc34       17 hcc34        18 dih34  
 h   20 hc35       19 hcc35        18 dih35  
 h   20 hc36       19 hcc36        18 dih36  
 h   15 hc37       16 hcc37        17 dih37  
 h   22 hc38       21 hcc38         7 dih38  
 h   23 hc39       22 hcc39        21 dih39  
 h   24 hc40       23 hcc40        22 dih40  
 h   25 hc41       24 hcc41        23 dih41  
 h   26 hc42       21 hcc42         7 dih42  
 h    9 hc43        8 hcc43         7 dih43  
 h   13 hc44        8 hcc44         7 dih44  
 h   12 hc45       13 hcc45         8 dih45  
 h   10 hc46        9 hcc46         8 dih46  
 h   11 hc47       12 hcc47        13 dih47  
 h    5 hc48        4 hcc48         7 dih48  
 h    3 hc49        4 hcc49         7 dih49  
 h    2 hc50        3 hcc50         4 dih50  
 h    6 hc51        5 hcc51         4 dih51  
 h    1 hc52        2 hcc52         3 dih52  
 
cc2         1.397494
cc3         1.397334
ccc3        120.014
cc4         1.407898
ccc4        121.418
dih4         -0.343
cc5         1.408352
ccc5        117.530
dih5          0.338
cc6         1.397672
ccc6        121.374
dih6         -0.041
sic7        1.890762
sicc7       122.041
dih7       -176.417
csi8        1.892706
csic8       109.386
dih8        -35.505
cc9         1.408930
ccsi9       121.740
dih9        -35.380
cc10        1.397671
ccc10       121.420
dih10      -176.275
cc11        1.397456
ccc11       119.993
dih11        -0.236
cc12        1.397650
ccc12       119.661
dih12         0.068
cc13        1.397389
ccc13       120.035
dih13         0.116
osi14       1.672654
osic14      111.812
dih14        86.488
co15        1.441867
cosi15      126.716
dih15       -50.269
cc16        1.537306
cco16       109.912
dih16        98.851
cc17        1.536997
ccc17       112.254
dih17        66.246
cc18        1.537436
ccc18       111.459
dih18        54.578
cc19        1.537437
ccc19       111.283
dih19       -54.633
cc20        1.537197
ccc20       111.388
dih20        54.656
csi21       1.883189
csio21      103.817
dih21      -169.495
cc22        1.407783
ccsi22      121.074
dih22       178.902
cc23        1.396816
ccc23       121.294
dih23       179.388
cc24        1.398262
ccc24       119.952
dih24        -0.153
cc25        1.397067
ccc25       119.687
dih25         0.015
cc26        1.398223
ccc26       120.097
dih26         0.077
hc27        1.096965
hcc27       110.388
dih27      -176.798
hc28        1.097297
hcc28       109.404
dih28        66.065
hc29        1.097213
hcc29       110.272
dih29      -177.273
hc30        1.100592
hcc30       109.236
dih30        66.005
hc31        1.097270
hcc31       109.451
dih31       -66.007
hc32        1.097049
hcc32       110.388
dih32       176.794
hc33        1.099737
hcc33       109.544
dih33       -65.149
hc34        1.095111
hcc34       110.776
dih34       177.223
hc35        1.095846
hcc35       110.760
dih35      -177.458
hc36        1.099414
hcc36       109.486
dih36        65.020
hc37        1.099584
hcc37       109.170
dih37      -173.827
hc38        1.088029
hcc38       120.031
dih38        -0.654
hc39        1.086685
hcc39       119.926
dih39       179.930
hc40        1.086637
hcc40       120.125
dih40      -179.936
hc41        1.086849
hcc41       120.050
dih41      -179.953
hc42        1.085833
hcc42       119.157
dih42         0.778
hc43        1.087243
hcc43       119.868
dih43         3.988
hc44        1.086969
hcc44       119.633
dih44        -3.742
hc45        1.086722
hcc45       119.887
dih45       179.766
hc46        1.086753
hcc46       119.893
dih46       179.978
hc47        1.086616
hcc47       120.174
dih47       179.958
hc48        1.087312
hcc48       119.926
dih48         3.913
hc49        1.086645
hcc49       119.472
dih49        -2.974
hc50        1.086779
hcc50       119.905
dih50       179.814
hc51        1.086756
hcc51       119.873
dih51       179.977
hc52        1.086567
hcc52       120.199
dih52      -179.920
 
 
 

