# opt dreiding

2-methylpropenoic acid-cis

0 1
 C                  0.54947826   -1.72969565   -0.20841304
 C                  0.53747826   -0.39269565   -0.06641304
 C                 -0.65752174    0.24530435    0.05658696
 C                  1.82147826    0.40230435   -0.04241304
 O                 -1.71352174   -0.34469565    0.04358696
 O                 -0.71952174    1.57230435    0.19958696
 H                  1.50147826   -2.27369565   -0.31041304
 H                 -0.36052174   -2.35169565   -0.23141304
 H                  1.83647826    1.14230435   -0.87541304
 H                  1.91947826    0.95230435    0.92158696
 H                  2.72547826   -0.23869565   -0.15241304
 H                 -1.66352174    1.79730435    0.26658696

 1 2 2.0 7 1.0 8 1.0
 2 3 2.0 4 1.0
 3 5 2.0 6 1.5
 4 9 1.0 10 1.0 11 1.0
 5
 6 12 1.0
 7
 8
 9
 10
 11
 12

