# opt dreiding

2-methylpropenal-t1

0 1
 C                  0.13357895   -1.72997368    0.01489474
 C                  0.17757895   -0.38597368    0.00389474
 C                 -0.99742105    0.29402632   -0.00310526
 O                 -1.08042105    1.50002632   -0.01410526
 C                  1.48957895    0.36102632   -0.00210526
 H                  1.06157895   -2.32297368    0.02089474
 H                 -0.80742105   -2.30497368    0.01989474
 H                 -1.94042105   -0.29897368    0.00089474
 H                  1.56857895    1.01502632    0.89689474
 H                  2.37057895   -0.32097368    0.00489474
 H                  1.57057895    0.99802632   -0.91210526

 1 2 2.0 6 1.0 7 1.0
 2 3 2.0 5 1.0
 3 4 2.0 8 1.0
 4
 5 9 1.0 10 1.0 11 1.0
 6
 7
 8
 9
 10
 11

