# opt dreiding

2-methylpropenal-t

0 1
 C                  0.15052632   -1.71600000    0.00000000
 C                  0.17952632   -0.37200000    0.00000000
 C                 -1.00447368    0.29200000    0.00000000
 O                 -1.11747368    1.49500000    0.00000000
 C                  1.50452632    0.35300000    0.00000000
 H                  1.09052632   -2.29100000    0.00000000
 H                 -0.78147368   -2.30600000    0.00000000
 H                 -1.93747368   -0.31800000    0.00000000
 H                  1.39652632    1.46100000    0.00000000
 H                  2.09552632    0.07600000    0.90300000
 H                  2.09552632    0.07600000   -0.90300000

 1 2 2.0 6 1.0 7 1.0
 2 3 2.0 5 1.0
 3 4 2.0 8 1.0
 4
 5 9 1.0 10 1.0 11 1.0
 6
 7
 8
 9
 10
 11

