# opt dreiding

but-1-ene-3-one-cis

0 1
 C                  0.96618421   -1.70726316    0.00000000
 C                  0.88818421   -0.36826316    0.00000000
 C                 -0.30481579    0.28173684    0.00000000
 C                 -0.24281579    1.80073684    0.00000000
 O                 -1.37481579   -0.28426316    0.00000000
 H                  1.94818421   -2.20826316    0.00000000
 H                  0.07818421   -2.36026316    0.00000000
 H                  1.82518421    0.21573684    0.00000000
 H                 -1.26581579    2.24173684    0.00000000
 H                  0.28618421    2.17173684    0.90800000
 H                  0.28618421    2.17173684   -0.90800000

 1 2 2.0 6 1.0 7 1.0
 2 3 2.0 8 1.0
 3 4 1.0 5 2.0
 4 9 1.0 10 1.0 11 1.0
 5
 6
 7
 8
 9
 10
 11

