# opt dreiding

DCE-g

0 1
 C                 -1.17561905    0.68004762   -0.73495238
 N                 -1.73361905    0.42404762   -1.71795238
 C                 -0.44361905    1.02104762    0.49904762
 C                  1.06938095   -0.96895238    0.55004762
 N                  1.10838095   -2.12395238    0.62904762
 C                  1.00438095    0.50304762    0.47704762
 H                 -0.44561905    2.13304762    0.58704762
 H                 -0.99761905    0.60904762    1.37504762
 H                  1.56138095    0.90204762    1.35704762
 H                  1.53138095    0.84404762   -0.44395238

 1 2 3.0 3 1.0
 2
 3 6 1.0 7 1.0 8 1.0
 4 5 3.0 6 1.0
 5
 6 9 1.0 10 1.0
 7
 8
 9
 10

