$RunGaus
%mem=8000Mb
%nproc=4
# mp2/cc-pVTZ

1-4-diCl-cyclohexane-dieq_single_point

0 1 
 c
 c   1 cc2     
 c    2 cc3         1 ccc3      
 c    3 cc4         2 ccc4          1 dih4   
 c    4 cc5         3 ccc5          2 dih5   
 c    5 cc6         4 ccc6          3 dih6   
cl    3 clc7        4 clcc7         5 dih7   
cl    6 clc8        5 clcc8         4 dih8   
 h    4 hc9         3 hcc9          2 dih9   
 h    4 hc10        3 hcc10         2 dih10  
 h    3 hc11        4 hcc11         5 dih11  
 h    2 hc12        3 hcc12         4 dih12  
 h    2 hc13        3 hcc13         4 dih13  
 h    5 hc14        4 hcc14         3 dih14  
 h    5 hc15        4 hcc15         3 dih15  
 h    6 hc16        5 hcc16         4 dih16  
 h    1 hc17        2 hcc17         3 dih17  
 h    1 hc18        2 hcc18         3 dih18  
 
cc2         1.542395
cc3         1.528752
ccc3        110.526
cc4         1.528750
ccc4        111.919
dih4        -56.340
cc5         1.542394
ccc5        110.527
dih5         56.341
cc6         1.528737
ccc6        110.527
dih6        -55.539
clc7        1.831887
clcc7       110.052
dih7        179.047
clc8        1.831889
clcc8       110.052
dih8        179.045
hc9         1.097038
hcc9        108.939
dih9        -64.801
hc10        1.094178
hcc10       110.203
dih10       178.081
hc11        1.093866
hcc11       110.133
dih11       -66.527
hc12        1.094167
hcc12       110.204
dih12      -178.080
hc13        1.097042
hcc13       108.939
dih13        64.800
hc14        1.094169
hcc14       109.954
dih14      -177.430
hc15        1.097056
hcc15       110.139
dih15        64.885
hc16        1.093889
hcc16       110.134
dih16       -66.532
hc17        1.094179
hcc17       109.954
dih17       177.429
hc18        1.097057
hcc18       110.139
dih18       -64.889
 
 
 

