$RunGaus
%mem=8000Mb
%nproc=4
# mp2/cc-pVTZ

1-4-diF-cyclohexane-dieq_single_point

0 1 
 c
 c   1 cc2     
 c    2 cc3         1 ccc3      
 c    3 cc4         2 ccc4          1 dih4   
 c    4 cc5         3 ccc5          2 dih5   
 c    5 cc6         4 ccc6          3 dih6   
 f    3 fc7         4 fcc7          5 dih7   
 f    6 fc8         5 fcc8          4 dih8   
 h    4 hc9         3 hcc9          2 dih9   
 h    4 hc10        3 hcc10         2 dih10  
 h    3 hc11        4 hcc11         5 dih11  
 h    2 hc12        3 hcc12         4 dih12  
 h    2 hc13        3 hcc13         4 dih13  
 h    5 hc14        4 hcc14         3 dih14  
 h    5 hc15        4 hcc15         3 dih15  
 h    6 hc16        5 hcc16         4 dih16  
 h    1 hc17        2 hcc17         3 dih17  
 h    1 hc18        2 hcc18         3 dih18  
 
cc2         1.539966
cc3         1.525120
ccc3        110.700
cc4         1.525166
ccc4        112.215
dih4        -55.774
cc5         1.539949
ccc5        110.699
dih5         55.774
cc6         1.525121
ccc6        110.699
dih6        -54.913
fc7         1.413660
fcc7        108.911
dih7        176.436
fc8         1.413665
fcc8        108.911
dih8        176.437
hc9         1.094505
hcc9        109.903
dih9        178.156
hc10        1.097808
hcc10       108.235
dih10       -65.243
hc11        1.098045
hcc11       110.391
dih11       -67.824
hc12        1.097797
hcc12       108.240
dih12        65.247
hc13        1.094525
hcc13       109.902
dih13      -178.151
hc14        1.097810
hcc14       110.319
dih14        64.867
hc15        1.094523
hcc15       110.531
dih15      -176.925
hc16        1.098055
hcc16       110.392
dih16       -67.822
hc17        1.097807
hcc17       110.318
dih17       -64.862
hc18        1.094499
hcc18       110.533
dih18       176.924
 
 
 

