$RunGaus
%mem=8000Mb
%nproc=4
# mp2/cc-pVTZ

aminocyclohexane-ax_single_point

0 1 
 c
 c   1 cc2     
 c    2 cc3         1 ccc3      
 c    3 cc4         2 ccc4          1 dih4   
 c    4 cc5         3 ccc5          2 dih5   
 c    5 cc6         4 ccc6          3 dih6   
 n    1 nc7         2 ncc7          3 dih7   
 h    3 hc8         4 hcc8          5 dih8   
 h    3 hc9         4 hcc9          5 dih9   
 h    4 hc10        3 hcc10         2 dih10  
 h    4 hc11        3 hcc11         2 dih11  
 h    5 hc12        4 hcc12         3 dih12  
 h    5 hc13        4 hcc13         3 dih13  
 h    2 hc14        3 hcc14         4 dih14  
 h    2 hc15        3 hcc15         4 dih15  
 h    6 hc16        5 hcc16         4 dih16  
 h    6 hc17        5 hcc17         4 dih17  
 h    1 hc18        2 hcc18         3 dih18  
 h    7 hn19        1 hnc19         2 dih19  
 h    7 hn20        1 hnc20         2 dih20  
 
cc2         1.541043
cc3         1.537125
ccc3        112.939
cc4         1.537329
ccc4        111.271
dih4         54.550
cc5         1.537314
ccc5        111.190
dih5        -55.175
cc6         1.537135
ccc6        111.272
dih6         55.175
nc7         1.473360
ncc7        109.508
dih7         68.129
hc8         1.097243
hcc8        110.309
dih8       -177.054
hc9         1.096459
hcc9        109.216
dih9         65.573
hc10        1.097095
hcc10       110.242
dih10      -177.754
hc11        1.100894
hcc11       109.282
dih11        65.546
hc12        1.096457
hcc12       109.216
dih12       -65.573
hc13        1.097246
hcc13       110.309
dih13       177.054
hc14        1.099089
hcc14       109.458
dih14       -65.853
hc15        1.098815
hcc15       110.380
dih15       177.538
hc16        1.098814
hcc16       110.379
dih16      -177.539
hc17        1.099086
hcc17       109.459
dih17        65.852
hc18        1.104362
hcc18       107.799
dih18      -170.160
hn19        1.017135
hnc19       110.851
dih19       178.801
hn20        1.017135
hnc20       110.852
dih20        59.890
 
 
 

