$RunGaus
%mem=8000Mb
%nproc=4
# mp2/cc-pVTZ

aminocyclohexane-eq_single_point

0 1 
 c
 c   1 cc2     
 c    2 cc3         1 ccc3      
 c    3 cc4         2 ccc4          1 dih4   
 c    4 cc5         3 ccc5          2 dih5   
 c    5 cc6         4 ccc6          3 dih6   
 n    1 nc7         2 ncc7          3 dih7   
 h    3 hc8         4 hcc8          5 dih8   
 h    3 hc9         4 hcc9          5 dih9   
 h    4 hc10        3 hcc10         2 dih10  
 h    4 hc11        3 hcc11         2 dih11  
 h    5 hc12        4 hcc12         3 dih12  
 h    5 hc13        4 hcc13         3 dih13  
 h    2 hc14        3 hcc14         4 dih14  
 h    2 hc15        3 hcc15         4 dih15  
 h    6 hc16        5 hcc16         4 dih16  
 h    6 hc17        5 hcc17         4 dih17  
 h    1 hc18        2 hcc18         3 dih18  
 h    7 hn19        1 hnc19         2 dih19  
 h    7 hn20        1 hnc20         2 dih20  
 
cc2         1.535485
cc3         1.537362
ccc3        111.816
cc4         1.537198
ccc4        111.459
dih4         55.211
cc5         1.537229
ccc5        111.357
dih5        -54.134
cc6         1.537351
ccc6        111.459
dih6         54.133
nc7         1.469512
ncc7        109.664
dih7       -176.468
hc8         1.096747
hcc8        110.322
dih8       -176.524
hc9         1.099860
hcc9        109.182
dih9         66.876
hc10        1.097076
hcc10       110.244
dih10      -176.827
hc11        1.099676
hcc11       109.154
dih11        66.446
hc12        1.099855
hcc12       109.180
dih12       -66.878
hc13        1.096746
hcc13       110.319
dih13       176.524
hc14        1.098607
hcc14       110.084
dih14       -64.982
hc15        1.098832
hcc15       110.178
dih15       177.584
hc16        1.098839
hcc16       110.178
dih16      -177.587
hc17        1.098609
hcc17       110.083
dih17        64.983
hc18        1.107228
hcc18       107.524
dih18        61.582
hn19        1.017497
hnc19       110.930
dih19       -59.767
hn20        1.017497
hnc20       110.930
dih20      -178.770
 
 
 

