$RunGaus
%mem=8000Mb
%nproc=4
# mp2/cc-pVTZ

chlorocyclohexane-ax_single_point

0 1 
 c
 c   1 cc2     
 c    2 cc3         1 ccc3      
 c    3 cc4         2 ccc4          1 dih4   
 c    4 cc5         3 ccc5          2 dih5   
 c    5 cc6         4 ccc6          3 dih6   
cl    1 clc7        2 clcc7         3 dih7   
 h    3 hc8         4 hcc8          5 dih8   
 h    3 hc9         4 hcc9          5 dih9   
 h    4 hc10        3 hcc10         2 dih10  
 h    4 hc11        3 hcc11         2 dih11  
 h    5 hc12        4 hcc12         3 dih12  
 h    5 hc13        4 hcc13         3 dih13  
 h    2 hc14        3 hcc14         4 dih14  
 h    2 hc15        3 hcc15         4 dih15  
 h    6 hc16        5 hcc16         4 dih16  
 h    6 hc17        5 hcc17         4 dih17  
 h    1 hc18        2 hcc18         3 dih18  
 
cc2         1.531075
cc3         1.536567
ccc3        112.991
cc4         1.537400
ccc4        111.480
dih4         52.867
cc5         1.537403
ccc5        111.478
dih5        -54.826
cc6         1.536566
ccc6        111.480
dih6         54.826
clc7        1.850947
clcc7       109.949
dih7         72.218
hc8         1.096478
hcc8        110.388
dih8       -176.639
hc9         1.097062
hcc9        109.567
dih9         66.150
hc10        1.096622
hcc10       110.099
dih10      -177.320
hc11        1.100373
hcc11       109.276
dih11        66.067
hc12        1.097062
hcc12       109.567
dih12       -66.150
hc13        1.096479
hcc13       110.388
dih13       176.639
hc14        1.100731
hcc14       109.277
dih14       -65.338
hc15        1.094740
hcc15       111.158
dih15       177.025
hc16        1.094740
hcc16       111.158
dih16      -177.025
hc17        1.100732
hcc17       109.277
dih17        65.338
hc18        1.091860
hcc18       110.566
dih18      -174.640
 
 
 

