$RunGaus
%mem=8000Mb
%nproc=4
# mp2/cc-pVTZ

chlorocyclohexane-eq_single_point

0 1 
 c
 c   1 cc2     
 c    2 cc3         1 ccc3      
 c    3 cc4         2 ccc4          1 dih4   
 c    4 cc5         3 ccc5          2 dih5   
 c    5 cc6         4 ccc6          3 dih6   
cl    1 clc7        2 clcc7         3 dih7   
 h    3 hc8         4 hcc8          5 dih8   
 h    3 hc9         4 hcc9          5 dih9   
 h    4 hc10        3 hcc10         2 dih10  
 h    4 hc11        3 hcc11         2 dih11  
 h    5 hc12        4 hcc12         3 dih12  
 h    5 hc13        4 hcc13         3 dih13  
 h    2 hc14        3 hcc14         4 dih14  
 h    2 hc15        3 hcc15         4 dih15  
 h    6 hc16        5 hcc16         4 dih16  
 h    6 hc17        5 hcc17         4 dih17  
 h    1 hc18        2 hcc18         3 dih18  
 
cc2         1.527819
cc3         1.541183
ccc3        110.319
cc4         1.536574
ccc4        111.669
dih4         55.035
cc5         1.536577
ccc5        111.240
dih5        -54.572
cc6         1.541181
ccc6        111.668
dih6         54.572
clc7        1.838928
clcc7       110.034
dih7       -179.353
hc8         1.096404
hcc8        110.562
dih8       -176.547
hc9         1.099481
hcc9        109.338
dih9         66.598
hc10        1.096626
hcc10       110.193
dih10      -177.089
hc11        1.099383
hcc11       109.253
dih11        66.124
hc12        1.099481
hcc12       109.338
dih12       -66.598
hc13        1.096404
hcc13       110.562
dih13       176.547
hc14        1.097625
hcc14       109.811
dih14       -64.872
hc15        1.094959
hcc15       110.737
dih15       177.045
hc16        1.094958
hcc16       110.737
dih16      -177.045
hc17        1.097624
hcc17       109.811
dih17        64.871
hc18        1.094362
hcc18       110.103
dih18        66.673
 
 
 

