$RunGaus
%mem=8000Mb
%nproc=4
# mp2/cc-pVTZ

cyclohexylmethylketone-ax_single_point

0 1 
 c
 c   1 cc2     
 c    2 cc3         1 ccc3      
 c    3 cc4         2 ccc4          1 dih4   
 c    4 cc5         3 ccc5          2 dih5   
 c    5 cc6         4 ccc6          3 dih6   
 c    2 cc7         3 ccc7          4 dih7   
 o    7 oc8         2 occ8          3 dih8   
 c    7 cc9         2 ccc9          3 dih9   
 h    3 hc10        4 hcc10         5 dih10  
 h    3 hc11        4 hcc11         5 dih11  
 h    4 hc12        3 hcc12         2 dih12  
 h    4 hc13        3 hcc13         2 dih13  
 h    5 hc14        4 hcc14         3 dih14  
 h    5 hc15        4 hcc15         3 dih15  
 h    2 hc16        3 hcc16         4 dih16  
 h    6 hc17        5 hcc17         4 dih17  
 h    6 hc18        5 hcc18         4 dih18  
 h    1 hc19        2 hcc19         3 dih19  
 h    1 hc20        2 hcc20         3 dih20  
 h    9 hc21        7 hcc21         2 dih21  
 h    9 hc22        7 hcc22         2 dih22  
 h    9 hc23        7 hcc23         2 dih23  
 
cc2         1.550276
cc3         1.540751
ccc3        110.730
cc4         1.538514
ccc4        112.773
dih4         52.314
cc5         1.536758
ccc5        111.956
dih5        -53.237
cc6         1.537113
ccc6        111.318
dih6         54.199
cc7         1.534448
ccc7        112.813
dih7        -75.413
oc8         1.220304
occ8        122.112
dih8         -4.421
cc9         1.521580
ccc9        117.625
dih9        177.233
hc10        1.094304
hcc10       109.946
dih10      -175.957
hc11        1.098997
hcc11       109.223
dih11        66.691
hc12        1.096965
hcc12       109.447
dih12      -175.599
hc13        1.096355
hcc13       108.980
dih13        68.154
hc14        1.100348
hcc14       109.529
dih14       -66.324
hc15        1.096906
hcc15       110.232
dih15       176.793
hc16        1.102567
hcc16       108.808
dih16       169.880
hc17        1.097024
hcc17       110.426
dih17      -177.370
hc18        1.099984
hcc18       109.241
dih18        65.951
hc19        1.098366
hcc19       107.732
dih19        66.139
hc20        1.095663
hcc20       110.954
dih20      -178.032
hc21        1.091488
hcc21       109.188
dih21       159.457
hc22        1.096882
hcc22       109.535
dih22       -82.058
hc23        1.094855
hcc23       112.175
dih23        36.955
 
 
 

