$RunGaus
%mem=8000Mb
%nproc=4
# mp2/cc-pVTZ

cyclohexylmethylketone-eq_single_point

0 1 
 c
 c   1 cc2     
 c    2 cc3         1 ccc3      
 c    3 cc4         2 ccc4          1 dih4   
 c    4 cc5         3 ccc5          2 dih5   
 c    5 cc6         4 ccc6          3 dih6   
 c    2 cc7         3 ccc7          4 dih7   
 o    7 oc8         2 occ8          3 dih8   
 c    7 cc9         2 ccc9          3 dih9   
 h    3 hc10        4 hcc10         5 dih10  
 h    3 hc11        4 hcc11         5 dih11  
 h    4 hc12        3 hcc12         2 dih12  
 h    4 hc13        3 hcc13         2 dih13  
 h    5 hc14        4 hcc14         3 dih14  
 h    5 hc15        4 hcc15         3 dih15  
 h    2 hc16        3 hcc16         4 dih16  
 h    6 hc17        5 hcc17         4 dih17  
 h    6 hc18        5 hcc18         4 dih18  
 h    1 hc19        2 hcc19         3 dih19  
 h    1 hc20        2 hcc20         3 dih20  
 h    9 hc21        7 hcc21         2 dih21  
 h    9 hc22        7 hcc22         2 dih22  
 h    9 hc23        7 hcc23         2 dih23  
 
cc2         1.536158
cc3         1.551140
ccc3        110.988
cc4         1.537369
ccc4        111.456
dih4         54.364
cc5         1.535973
ccc5        111.858
dih5        -54.473
cc6         1.536294
ccc6        111.254
dih6         54.529
cc7         1.528867
ccc7        111.056
dih7       -179.651
oc8         1.220314
occ8        121.941
dih8       -118.065
cc9         1.521623
ccc9        117.562
dih9         61.091
hc10        1.096047
hcc10       109.774
dih10      -177.337
hc11        1.099527
hcc11       109.403
dih11        65.724
hc12        1.097002
hcc12       109.618
dih12      -177.307
hc13        1.099842
hcc13       109.013
dih13        66.433
hc14        1.099723
hcc14       109.181
dih14       -66.055
hc15        1.096908
hcc15       110.122
dih15       177.272
hc16        1.103228
hcc16       106.915
dih16       -64.292
hc17        1.096776
hcc17       110.235
dih17      -177.060
hc18        1.100257
hcc18       109.184
dih18        66.445
hc19        1.097262
hcc19       108.752
dih19        66.575
hc20        1.095322
hcc20       109.750
dih20      -177.927
hc21        1.091682
hcc21       109.377
dih21       158.661
hc22        1.096940
hcc22       109.331
dih22       -83.098
hc23        1.094652
hcc23       112.203
dih23        35.934
 
 
 

