$RunGaus
%mem=8000Mb
%nproc=4
# mp2/cc-pVTZ

cyclohexylphosphine-eq_single_point

0 1 
 c
 c   1 cc2     
 c    2 cc3         1 ccc3      
 c    3 cc4         2 ccc4          1 dih4   
 c    4 cc5         3 ccc5          2 dih5   
 c    5 cc6         4 ccc6          3 dih6   
 p    1 pc7         2 pcc7          3 dih7   
 h    3 hc8         4 hcc8          5 dih8   
 h    3 hc9         4 hcc9          5 dih9   
 h    4 hc10        3 hcc10         2 dih10  
 h    4 hc11        3 hcc11         2 dih11  
 h    5 hc12        4 hcc12         3 dih12  
 h    5 hc13        4 hcc13         3 dih13  
 h    2 hc14        3 hcc14         4 dih14  
 h    2 hc15        3 hcc15         4 dih15  
 h    6 hc16        5 hcc16         4 dih16  
 h    6 hc17        5 hcc17         4 dih17  
 h    1 hc18        2 hcc18         3 dih18  
 h    7 hp19        1 hpc19         2 dih19  
 h    7 hp20        1 hpc20         2 dih20  
 
cc2         1.541428
cc3         1.538870
ccc3        111.699
cc4         1.536318
ccc4        111.643
dih4         54.992
cc5         1.536325
ccc5        111.312
dih5        -54.512
cc6         1.538868
ccc6        111.644
dih6         54.511
pc7         1.891320
pcc7        110.202
dih7       -176.995
hc8         1.097083
hcc8        110.367
dih8       -176.911
hc9         1.099648
hcc9        109.231
dih9         66.311
hc10        1.096947
hcc10       110.256
dih10      -177.202
hc11        1.099756
hcc11       109.190
dih11        66.109
hc12        1.099648
hcc12       109.230
dih12       -66.312
hc13        1.097083
hcc13       110.366
dih13       176.911
hc14        1.099936
hcc14       109.201
dih14       -65.822
hc15        1.097338
hcc15       109.902
dih15       177.634
hc16        1.097334
hcc16       109.902
dih16      -177.632
hc17        1.099932
hcc17       109.202
dih17        65.823
hc18        1.097903
hcc18       108.435
dih18        64.104
hp19        1.425503
hpc19        97.372
dih19      -166.009
hp20        1.425504
hpc20        97.373
dih20       -71.429
 
 
 

