$RunGaus
%mem=8000Mb
%nproc=4
# mp2/cc-pVTZ

fluorocyclohexane-ax_single_point

0 1 
 c
 c   1 cc2     
 c    2 cc3         1 ccc3      
 c    3 cc4         2 ccc4          1 dih4   
 c    4 cc5         3 ccc5          2 dih5   
 c    5 cc6         4 ccc6          3 dih6   
 f    2 fc7         3 fcc7          4 dih7   
 h    3 hc8         4 hcc8          5 dih8   
 h    3 hc9         4 hcc9          5 dih9   
 h    4 hc10        3 hcc10         2 dih10  
 h    5 hc11        4 hcc11         3 dih11  
 h    5 hc12        4 hcc12         3 dih12  
 h    2 hc13        3 hcc13         4 dih13  
 h    6 hc14        5 hcc14         4 dih14  
 h    6 hc15        5 hcc15         4 dih15  
 h    1 hc16        2 hcc16         3 dih16  
 h    1 hc17        2 hcc17         3 dih17  
 h    4 hc18        3 hcc18         2 dih18  
 
cc2         1.526377
cc3         1.526381
ccc3        113.092
cc4         1.537197
ccc4        112.351
dih4         51.041
cc5         1.537516
ccc5        111.487
dih5        -53.093
cc6         1.537517
ccc6        111.175
dih6         55.363
fc7         1.425312
fcc7        108.146
dih7        -68.696
hc8         1.095830
hcc8        111.016
dih8       -175.442
hc9         1.099418
hcc9        109.841
dih9         66.544
hc10        1.096475
hcc10       109.598
dih10      -175.733
hc11        1.100505
hcc11       109.343
dih11       -65.461
hc12        1.096667
hcc12       110.175
dih12       177.801
hc13        1.096113
hcc13       110.919
dih13       176.388
hc14        1.096476
hcc14       110.484
dih14      -177.494
hc15        1.097228
hcc15       109.344
dih15        65.335
hc16        1.099419
hcc16       107.526
dih16        69.934
hc17        1.095831
hcc17       109.001
dih17      -174.525
hc18        1.097227
hcc18       109.080
dih18        67.759
 
 
 

