$RunGaus
%mem=8000Mb
%nproc=4
# mp2/cc-pVTZ

hydroxycyclohexane-eq_single_point

0 1 
 c
 c   1 cc2     
 c    2 cc3         1 ccc3      
 c    3 cc4         2 ccc4          1 dih4   
 c    4 cc5         3 ccc5          2 dih5   
 c    5 cc6         4 ccc6          3 dih6   
 o    1 oc7         2 occ7          3 dih7   
 h    3 hc8         4 hcc8          5 dih8   
 h    3 hc9         4 hcc9          5 dih9   
 h    4 hc10        3 hcc10         2 dih10  
 h    4 hc11        3 hcc11         2 dih11  
 h    5 hc12        4 hcc12         3 dih12  
 h    5 hc13        4 hcc13         3 dih13  
 h    2 hc14        3 hcc14         4 dih14  
 h    2 hc15        3 hcc15         4 dih15  
 h    6 hc16        5 hcc16         4 dih16  
 h    6 hc17        5 hcc17         4 dih17  
 h    1 hc18        2 hcc18         3 dih18  
 h    7 ho19        1 hoc19         2 dih19  
 
cc2         1.527889
cc3         1.537949
ccc3        111.445
cc4         1.537330
ccc4        111.649
dih4         54.883
cc5         1.537214
ccc5        111.342
dih5        -54.227
cc6         1.538849
ccc6        111.333
dih6         54.251
oc7         1.433875
occ7        107.154
dih7       -178.085
hc8         1.096483
hcc8        110.349
dih8       -176.604
hc9         1.099818
hcc9        109.155
dih9         66.863
hc10        1.096963
hcc10       110.249
dih10      -176.806
hc11        1.099559
hcc11       109.212
dih11        66.406
hc12        1.099776
hcc12       109.208
dih12       -66.623
hc13        1.096583
hcc13       110.476
dih13       176.680
hc14        1.098592
hcc14       110.051
dih14       -64.974
hc15        1.095870
hcc15       110.977
dih15       176.898
hc16        1.099271
hcc16       110.254
dih16      -177.427
hc17        1.098683
hcc17       110.013
dih17        64.873
hc18        1.103885
hcc18       108.546
dih18        64.180
ho19        0.966411
hoc19       108.833
dih19       179.320
 
 
 

