$RunGaus
%mem=8000Mb
%nproc=4
# mp2/cc-pVTZ

isopropylcyclohexane-ax_single_point

0 1 
 c
 c   1 cc2     
 c    2 cc3         1 ccc3      
 c    3 cc4         2 ccc4          1 dih4   
 c    4 cc5         3 ccc5          2 dih5   
 c    5 cc6         4 ccc6          3 dih6   
 c    1 cc7         2 ccc7          3 dih7   
 c    7 cc8         1 ccc8          2 dih8   
 c    7 cc9         1 ccc9          2 dih9   
 h    3 hc10        4 hcc10         5 dih10  
 h    3 hc11        4 hcc11         5 dih11  
 h    4 hc12        3 hcc12         2 dih12  
 h    4 hc13        3 hcc13         2 dih13  
 h    5 hc14        4 hcc14         3 dih14  
 h    5 hc15        4 hcc15         3 dih15  
 h    2 hc16        3 hcc16         4 dih16  
 h    2 hc17        3 hcc17         4 dih17  
 h    6 hc18        5 hcc18         4 dih18  
 h    6 hc19        5 hcc19         4 dih19  
 h    1 hc20        2 hcc20         3 dih20  
 h    7 hc21        1 hcc21         2 dih21  
 h    9 hc22        7 hcc22         1 dih22  
 h    9 hc23        7 hcc23         1 dih23  
 h    9 hc24        7 hcc24         1 dih24  
 h    8 hc25        7 hcc25         1 dih25  
 h    8 hc26        7 hcc26         1 dih26  
 h    8 hc27        7 hcc27         1 dih27  
 
cc2         1.548613
cc3         1.538930
ccc3        113.013
cc4         1.537383
ccc4        111.340
dih4         55.892
cc5         1.537390
ccc5        111.610
dih5        -53.214
cc6         1.538927
ccc6        111.341
dih6         53.214
cc7         1.558039
ccc7        113.942
dih7         71.746
cc8         1.539733
ccc8        111.952
dih8         56.303
cc9         1.539728
ccc9        111.947
dih9        179.252
hc10        1.097364
hcc10       110.069
dih10      -175.152
hc11        1.098867
hcc11       109.418
dih11        68.533
hc12        1.097323
hcc12       110.410
dih12      -176.418
hc13        1.100213
hcc13       108.883
dih13        67.011
hc14        1.098866
hcc14       109.417
dih14       -68.534
hc15        1.097364
hcc15       110.069
dih15       175.152
hc16        1.099667
hcc16       108.354
dih16       -63.528
hc17        1.094842
hcc17       110.347
dih17      -179.025
hc18        1.094847
hcc18       110.347
dih18       179.028
hc19        1.099667
hcc19       108.355
dih19        63.530
hc20        1.101613
hcc20       107.389
dih20      -171.381
hc21        1.098824
hcc21       108.839
dih21       -62.224
hc22        1.095717
hcc22       110.529
dih22      -176.073
hc23        1.097952
hcc23       110.879
dih23       -56.919
hc24        1.093660
hcc24       112.625
dih24        63.930
hc25        1.095717
hcc25       110.528
dih25       176.063
hc26        1.093656
hcc26       112.626
dih26       -63.940
hc27        1.097953
hcc27       110.879
dih27        56.910
 
 
 

