$RunGaus
%mem=8000Mb
%nproc=4
# mp2/cc-pVTZ

isopropylcyclohexane-eq_single_point

0 1 
 c
 c   1 cc2     
 c    2 cc3         1 ccc3      
 c    3 cc4         2 ccc4          1 dih4   
 c    4 cc5         3 ccc5          2 dih5   
 c    5 cc6         4 ccc6          3 dih6   
 c    1 cc7         2 ccc7          3 dih7   
 c    7 cc8         1 ccc8          2 dih8   
 c    7 cc9         1 ccc9          2 dih9   
 h    3 hc10        4 hcc10         5 dih10  
 h    3 hc11        4 hcc11         5 dih11  
 h    4 hc12        3 hcc12         2 dih12  
 h    4 hc13        3 hcc13         2 dih13  
 h    5 hc14        4 hcc14         3 dih14  
 h    5 hc15        4 hcc15         3 dih15  
 h    2 hc16        3 hcc16         4 dih16  
 h    2 hc17        3 hcc17         4 dih17  
 h    6 hc18        5 hcc18         4 dih18  
 h    6 hc19        5 hcc19         4 dih19  
 h    1 hc20        2 hcc20         3 dih20  
 h    7 hc21        1 hcc21         2 dih21  
 h    9 hc22        7 hcc22         1 dih22  
 h    9 hc23        7 hcc23         1 dih23  
 h    9 hc24        7 hcc24         1 dih24  
 h    8 hc25        7 hcc25         1 dih25  
 h    8 hc26        7 hcc26         1 dih26  
 h    8 hc27        7 hcc27         1 dih27  
 
cc2         1.544777
cc3         1.537855
ccc3        113.008
cc4         1.534018
ccc4        111.893
dih4         55.128
cc5         1.534013
ccc5        110.615
dih5        -54.489
cc6         1.537860
ccc6        111.893
dih6         54.489
cc7         1.554537
ccc7        112.459
dih7       -178.893
cc8         1.539897
ccc8        112.532
dih8       -179.813
cc9         1.539893
ccc9        112.532
dih9        -56.080
hc10        1.097333
hcc10       110.470
dih10      -177.081
hc11        1.100094
hcc11       109.067
dih11        66.308
hc12        1.097276
hcc12       110.456
dih12      -177.095
hc13        1.100087
hcc13       109.321
dih13        65.941
hc14        1.100094
hcc14       109.067
dih14       -66.308
hc15        1.097332
hcc15       110.470
dih15       177.081
hc16        1.101408
hcc16       109.094
dih16       -65.831
hc17        1.094804
hcc17       108.985
dih17       178.299
hc18        1.094804
hcc18       108.984
dih18      -178.298
hc19        1.101408
hcc19       109.094
dih19        65.832
hc20        1.104047
hcc20       107.582
dih20        63.461
hc21        1.101835
hcc21       107.134
dih21        62.053
hc22        1.095751
hcc22       110.480
dih22      -177.301
hc23        1.097969
hcc23       110.868
dih23       -58.279
hc24        1.093400
hcc24       112.673
dih24        62.698
hc25        1.095750
hcc25       110.480
dih25       177.291
hc26        1.093399
hcc26       112.673
dih26       -62.708
hc27        1.097970
hcc27       110.868
dih27        58.269
 
 
 

