$RunGaus
%mem=8000Mb
%nproc=4
# mp2/cc-pVTZ

me_cyclohexanecarboxylate-axA_single_point

0 1 
 c
 c   1 cc2     
 c    2 cc3         1 ccc3      
 c    3 cc4         2 ccc4          1 dih4   
 c    4 cc5         3 ccc5          2 dih5   
 c    5 cc6         4 ccc6          3 dih6   
 c    2 cc7         3 ccc7          4 dih7   
 o    7 oc8         2 occ8          3 dih8   
 c    8 co9         7 coc9          2 dih9   
 o    7 oc10        2 occ10         3 dih10  
 h    3 hc11        4 hcc11         5 dih11  
 h    3 hc12        4 hcc12         5 dih12  
 h    4 hc13        3 hcc13         2 dih13  
 h    4 hc14        3 hcc14         2 dih14  
 h    5 hc15        4 hcc15         3 dih15  
 h    5 hc16        4 hcc16         3 dih16  
 h    2 hc17        3 hcc17         4 dih17  
 h    6 hc18        5 hcc18         4 dih18  
 h    6 hc19        5 hcc19         4 dih19  
 h    1 hc20        2 hcc20         3 dih20  
 h    1 hc21        2 hcc21         3 dih21  
 h    9 hc22        8 hco22         7 dih22  
 h    9 hc23        8 hco23         7 dih23  
 h    9 hc24        8 hco24         7 dih24  
 
cc2         1.540961
cc3         1.549551
ccc3        111.078
cc4         1.536808
ccc4        112.213
dih4         52.889
cc5         1.536756
ccc5        111.381
dih5        -55.163
cc6         1.536958
ccc6        111.370
dih6         55.484
cc7         1.525881
ccc7        112.498
dih7        -73.303
oc8         1.355514
occ8        111.427
dih8        -53.551
co9         1.439960
coc9        115.990
dih9       -177.925
oc10        1.215423
occ10       126.091
dih10       128.434
hc11        1.093852
hcc11       110.997
dih11      -178.693
hc12        1.098490
hcc12       108.937
dih12        63.771
hc13        1.096954
hcc13       109.544
dih13      -177.626
hc14        1.099837
hcc14       109.635
dih14        66.039
hc15        1.100384
hcc15       108.981
dih15       -65.365
hc16        1.096945
hcc16       110.232
dih16       178.087
hc17        1.099422
hcc17       107.541
dih17       172.131
hc18        1.096956
hcc18       110.151
dih18      -176.214
hc19        1.096534
hcc19       109.572
dih19        66.762
hc20        1.098768
hcc20       107.501
dih20        68.686
hc21        1.094481
hcc21       109.883
dih21      -175.096
hc22        1.089821
hco22       105.447
dih22       179.510
hc23        1.092748
hco23       110.443
dih23        59.881
hc24        1.092722
hco24       110.481
dih24       -60.874
 
 
 

