$RunGaus
%mem=8000Mb
%nproc=4
# mp2/cc-pVTZ

methylcyclohexane-ax_single_point

0 1 
 c
 c   1 cc2     
 c    2 cc3         1 ccc3      
 c    3 cc4         2 ccc4          1 dih4   
 c    4 cc5         3 ccc5          2 dih5   
 c    5 cc6         4 ccc6          3 dih6   
 c    1 cc7         2 ccc7          3 dih7   
 h    3 hc8         4 hcc8          5 dih8   
 h    3 hc9         4 hcc9          5 dih9   
 h    4 hc10        3 hcc10         2 dih10  
 h    4 hc11        3 hcc11         2 dih11  
 h    5 hc12        4 hcc12         3 dih12  
 h    5 hc13        4 hcc13         3 dih13  
 h    2 hc14        3 hcc14         4 dih14  
 h    2 hc15        3 hcc15         4 dih15  
 h    6 hc16        5 hcc16         4 dih16  
 h    6 hc17        5 hcc17         4 dih17  
 h    1 hc18        2 hcc18         3 dih18  
 h    7 hc19        1 hcc19         2 dih19  
 h    7 hc20        1 hcc20         2 dih20  
 h    7 hc21        1 hcc21         2 dih21  
 
cc2         1.546185
cc3         1.538478
ccc3        113.108
cc4         1.537656
ccc4        111.417
dih4         54.588
cc5         1.537660
ccc5        111.417
dih5        -54.475
cc6         1.538479
ccc6        111.417
dih6         54.475
cc7         1.538849
ccc7        112.442
dih7         73.085
hc8         1.097249
hcc8        110.190
dih8       -176.466
hc9         1.098707
hcc9        109.316
dih9         67.232
hc10        1.097245
hcc10       110.367
dih10      -177.457
hc11        1.100355
hcc11       109.023
dih11        65.896
hc12        1.098708
hcc12       109.315
dih12       -67.232
hc13        1.097248
hcc13       110.189
dih13       176.467
hc14        1.099681
hcc14       108.517
dih14       -65.938
hc15        1.097929
hcc15       110.183
dih15       177.960
hc16        1.097929
hcc16       110.183
dih16      -177.961
hc17        1.099682
hcc17       108.516
dih17        65.938
hc18        1.099213
hcc18       107.479
dih18      -169.633
hc19        1.094953
hcc19       112.508
dih19       -62.329
hc20        1.096324
hcc20       110.815
dih20        57.934
hc21        1.096325
hcc21       110.815
dih21       177.408
 
 
 

