$RunGaus
%mem=8000Mb
%nproc=4
# mp2/cc-pVTZ

methoxycyclohexane-eq_single_point

0 1 
 c
 c   1 cc2     
 c    2 cc3         1 ccc3      
 c    3 cc4         2 ccc4          1 dih4   
 c    4 cc5         3 ccc5          2 dih5   
 c    5 cc6         4 ccc6          3 dih6   
 o    1 oc7         2 occ7          3 dih7   
 c    7 co8         1 coc8          2 dih8   
 h    3 hc9         4 hcc9          5 dih9   
 h    3 hc10        4 hcc10         5 dih10  
 h    4 hc11        3 hcc11         2 dih11  
 h    4 hc12        3 hcc12         2 dih12  
 h    5 hc13        4 hcc13         3 dih13  
 h    5 hc14        4 hcc14         3 dih14  
 h    2 hc15        3 hcc15         4 dih15  
 h    2 hc16        3 hcc16         4 dih16  
 h    6 hc17        5 hcc17         4 dih17  
 h    6 hc18        5 hcc18         4 dih18  
 h    1 hc19        2 hcc19         3 dih19  
 h    8 hc20        7 hco20         1 dih20  
 h    8 hc21        7 hco21         1 dih21  
 h    8 hc22        7 hco22         1 dih22  
 
cc2         1.529812
cc3         1.537498
ccc3        111.729
cc4         1.536829
ccc4        111.614
dih4         54.874
cc5         1.536447
ccc5        111.202
dih5        -54.220
cc6         1.539199
ccc6        111.563
dih6         54.501
oc7         1.429956
occ7        106.975
dih7       -178.415
co8         1.416175
coc8        115.135
dih8       -163.063
hc9         1.096623
hcc9        110.409
dih9       -176.627
hc10        1.099908
hcc10       109.154
dih10        66.817
hc11        1.097047
hcc11       110.293
dih11      -176.843
hc12        1.099590
hcc12       109.209
dih12        66.318
hc13        1.099997
hcc13       109.184
dih13       -66.471
hc14        1.096759
hcc14       110.458
dih14       176.955
hc15        1.098552
hcc15       109.977
dih15       -65.120
hc16        1.095854
hcc16       110.980
dih16       176.898
hc17        1.096316
hcc17       109.914
dih17      -178.086
hc18        1.098807
hcc18       109.926
dih18        64.414
hc19        1.105774
hcc19       108.837
dih19        64.582
hc20        1.092707
hco20       106.786
dih20       173.941
hc21        1.099133
hco21       112.561
dih21       -67.015
hc22        1.101428
hco22       111.302
dih22        55.249
 
 
 

