$RunGaus
%mem=8000Mb
%nproc=4
# mp2/cc-pVTZ

methylcyclohexane-eq_single_point

0 1 
 c
 c   1 cc2     
 c    2 cc3         1 ccc3      
 c    3 cc4         2 ccc4          1 dih4   
 c    4 cc5         3 ccc5          2 dih5   
 c    5 cc6         4 ccc6          3 dih6   
 c    1 cc7         2 ccc7          3 dih7   
 h    3 hc8         4 hcc8          5 dih8   
 h    3 hc9         4 hcc9          5 dih9   
 h    4 hc10        3 hcc10         2 dih10  
 h    4 hc11        3 hcc11         2 dih11  
 h    5 hc12        4 hcc12         3 dih12  
 h    5 hc13        4 hcc13         3 dih13  
 h    2 hc14        3 hcc14         4 dih14  
 h    2 hc15        3 hcc15         4 dih15  
 h    6 hc16        5 hcc16         4 dih16  
 h    6 hc17        5 hcc17         4 dih17  
 h    1 hc18        2 hcc18         3 dih18  
 h    7 hc19        1 hcc19         2 dih19  
 h    7 hc20        1 hcc20         2 dih20  
 h    7 hc21        1 hcc21         2 dih21  
 
cc2         1.540462
cc3         1.537531
ccc3        112.361
cc4         1.536718
ccc4        111.574
dih4         54.882
cc5         1.536741
ccc5        111.309
dih5        -54.214
cc6         1.537524
ccc6        111.575
dih6         54.214
cc7         1.533655
ccc7        111.754
dih7       -179.182
hc8         1.097215
hcc8        110.305
dih8       -176.914
hc9         1.100004
hcc9        109.132
dih9         66.484
hc10        1.097221
hcc10       110.293
dih10      -176.972
hc11        1.100083
hcc11       109.165
dih11        66.357
hc12        1.100001
hcc12       109.131
dih12       -66.485
hc13        1.097215
hcc13       110.303
dih13       176.915
hc14        1.101133
hcc14       109.216
dih14       -65.830
hc15        1.098009
hcc15       110.154
dih15       177.664
hc16        1.098006
hcc16       110.155
dih16      -177.660
hc17        1.101129
hcc17       109.217
dih17        65.830
hc18        1.102241
hcc18       107.488
dih18        62.629
hc19        1.097456
hcc19       110.929
dih19        62.049
hc20        1.096357
hcc20       111.337
dih20      -178.102
hc21        1.096359
hcc21       111.337
dih21       -57.798
 
 
 

