$RunGaus
%mem=16000Mb
%nproc=8
# mp2/cc-pVTZ

phenylcyclohexane-ax_single_point

0 1 
 c
 c   1 cc2     
 c    2 cc3         1 ccc3      
 c    3 cc4         2 ccc4          1 dih4   
 c    4 cc5         3 ccc5          2 dih5   
 c    5 cc6         4 ccc6          3 dih6   
 c    4 cc7         5 ccc7          6 dih7   
 c    7 cc8         4 ccc8          5 dih8   
 c    8 cc9         7 ccc9          4 dih9   
 c    9 cc10        8 ccc10         7 dih10  
 c   10 cc11        9 ccc11         8 dih11  
 c   11 cc12       10 ccc12         9 dih12  
 h    8 hc13        9 hcc13        10 dih13  
 h    8 hc14        9 hcc14        10 dih14  
 h    9 hc15        8 hcc15         7 dih15  
 h   10 hc16        9 hcc16         8 dih16  
 h    7 hc17        8 hcc17         9 dih17  
 h   11 hc18       10 hcc18         9 dih18  
 h   12 hc19        7 hcc19         8 dih19  
 h   12 hc20        7 hcc20         8 dih20  
 h   10 hc21        9 hcc21         8 dih21  
 h    9 hc22        8 hcc22         7 dih22  
 h   11 hc23       10 hcc23         9 dih23  
 h    5 hc24        4 hcc24         7 dih24  
 h    3 hc25        4 hcc25         7 dih25  
 h    2 hc26        3 hcc26         4 dih26  
 h    6 hc27        5 hcc27         4 dih27  
 h    1 hc28        2 hcc28         3 dih28  
 
cc2         1.394690
cc3         1.399668
ccc3        120.442
cc4         1.402708
ccc4        121.412
dih4         -0.287
cc5         1.407199
ccc5        117.227
dih5          0.931
cc6         1.395077
ccc6        121.688
dih6         -0.890
cc7         1.533960
ccc7        118.985
dih7       -177.910
cc8         1.553198
ccc8        112.797
dih8        -56.430
cc9         1.535928
ccc9        113.012
dih9        -76.713
cc10        1.535908
ccc10       111.106
dih10       -56.959
cc11        1.536165
ccc11       110.926
dih11        56.096
cc12        1.540866
ccc12       111.692
dih12       -53.945
hc13        1.095039
hcc13       110.206
dih13       178.940
hc14        1.099509
hcc14       108.748
dih14        62.810
hc15        1.097108
hcc15       109.647
dih15      -179.176
hc16        1.100268
hcc16       109.144
dih16       -64.537
hc17        1.099909
hcc17       106.603
dih17       168.150
hc18        1.097321
hcc18       110.324
dih18      -175.796
hc19        1.098826
hcc19       107.181
dih19        68.284
hc20        1.096540
hcc20       110.455
dih20      -176.870
hc21        1.097017
hcc21       110.511
dih21       178.581
hc22        1.098751
hcc22       109.588
dih22        64.171
hc23        1.096864
hcc23       108.606
dih23        67.888
hc24        1.086907
hcc24       119.502
dih24         1.341
hc25        1.083935
hcc25       120.201
dih25        -1.795
hc26        1.086680
hcc26       119.437
dih26       179.844
hc27        1.086678
hcc27       119.671
dih27       179.844
hc28        1.086166
hcc28       120.507
dih28       179.998
 
 
 

