$RunGaus
%mem=8000Mb
%nproc=4
# mp2/cc-pVTZ

t-butylcyclohexane-ax_single_point

0 1 
 c
 c   1 cc2     
 c    2 cc3         1 ccc3      
 c    3 cc4         2 ccc4          1 dih4   
 c    4 cc5         3 ccc5          2 dih5   
 c    5 cc6         4 ccc6          3 dih6   
 c    1 cc7         2 ccc7          3 dih7   
 c    7 cc8         1 ccc8          2 dih8   
 c    7 cc9         1 ccc9          2 dih9   
 c    7 cc10        1 ccc10         2 dih10  
 h    3 hc11        4 hcc11         5 dih11  
 h    3 hc12        4 hcc12         5 dih12  
 h    4 hc13        3 hcc13         2 dih13  
 h    4 hc14        3 hcc14         2 dih14  
 h    5 hc15        4 hcc15         3 dih15  
 h    5 hc16        4 hcc16         3 dih16  
 h    2 hc17        3 hcc17         4 dih17  
 h    2 hc18        3 hcc18         4 dih18  
 h    6 hc19        5 hcc19         4 dih19  
 h    6 hc20        5 hcc20         4 dih20  
 h    1 hc21        2 hcc21         3 dih21  
 h    9 hc22        7 hcc22         1 dih22  
 h    9 hc23        7 hcc23         1 dih23  
 h    9 hc24        7 hcc24         1 dih24  
 h   10 hc25        7 hcc25         1 dih25  
 h   10 hc26        7 hcc26         1 dih26  
 h   10 hc27        7 hcc27         1 dih27  
 h    8 hc28        7 hcc28         1 dih28  
 h    8 hc29        7 hcc29         1 dih29  
 h    8 hc30        7 hcc30         1 dih30  
 
cc2         1.554479
cc3         1.540164
ccc3        115.831
cc4         1.534475
ccc4        111.514
dih4         53.065
cc5         1.534478
ccc5        110.873
dih5        -55.168
cc6         1.540167
ccc6        111.514
dih6         55.168
cc7         1.576288
ccc7        116.735
dih7         87.471
cc8         1.543716
ccc8        115.309
dih8        -65.623
cc9         1.547203
ccc9        109.104
dih9        172.679
cc10        1.547197
ccc10       109.105
dih10        56.078
hc11        1.097656
hcc11       110.148
dih11      -176.352
hc12        1.096733
hcc12       109.189
dih12        67.405
hc13        1.097166
hcc13       110.474
dih13      -177.986
hc14        1.100391
hcc14       109.166
dih14        65.132
hc15        1.096731
hcc15       109.188
dih15       -67.405
hc16        1.097655
hcc16       110.148
dih16       176.351
hc17        1.099989
hcc17       107.210
dih17       -66.078
hc18        1.094447
hcc18       109.965
dih18       179.713
hc19        1.094449
hcc19       109.964
dih19      -179.710
hc20        1.099988
hcc20       107.211
dih20        66.080
hc21        1.100157
hcc21       105.256
dih21      -159.732
hc22        1.096103
hcc22       110.215
dih22      -172.093
hc23        1.096831
hcc23       111.352
dih23       -52.718
hc24        1.094210
hcc24       112.378
dih24        68.479
hc25        1.096103
hcc25       110.215
dih25       172.084
hc26        1.094210
hcc26       112.378
dih26       -68.488
hc27        1.096831
hcc27       111.352
dih27        52.710
hc28        1.096913
hcc28       109.664
dih28       179.999
hc29        1.093895
hcc29       112.157
dih29       -60.970
hc30        1.093895
hcc30       112.158
dih30        60.969
 
 
 

