$RunGaus
%mem=8000Mb
%nproc=4
# mp2/cc-pVTZ

trans1-2difluorocycloh-eq-eq_single_point

0 1 
 c
 c   1 cc2     
 c    2 cc3         1 ccc3      
 c    3 cc4         2 ccc4          1 dih4   
 c    4 cc5         3 ccc5          2 dih5   
 c    5 cc6         4 ccc6          3 dih6   
 f    4 fc7         3 fcc7          2 dih7   
 f    5 fc8         4 fcc8          3 dih8   
 h    3 hc9         4 hcc9          5 dih9   
 h    3 hc10        4 hcc10         5 dih10  
 h    4 hc11        3 hcc11         2 dih11  
 h    5 hc12        4 hcc12         3 dih12  
 h    2 hc13        3 hcc13         4 dih13  
 h    2 hc14        3 hcc14         4 dih14  
 h    6 hc15        5 hcc15         4 dih15  
 h    6 hc16        5 hcc16         4 dih16  
 h    1 hc17        2 hcc17         3 dih17  
 h    1 hc18        2 hcc18         3 dih18  
 
cc2         1.536838
cc3         1.537638
ccc3        110.962
cc4         1.527096
ccc4        111.512
dih4         55.106
cc5         1.519885
ccc5        111.766
dih5        -54.740
cc6         1.527101
ccc6        111.766
dih6         54.504
fc7         1.409288
fcc7        108.767
dih7       -175.300
fc8         1.409285
fcc8        109.134
dih8        174.850
hc9         1.094980
hcc9        108.806
dih9       -177.961
hc10        1.098008
hcc10       108.190
dih10        66.246
hc11        1.097162
hcc11       111.578
dih11        67.848
hc12        1.097162
hcc12       109.194
dih12       -69.434
hc13        1.098953
hcc13       109.700
dih13       -65.858
hc14        1.095680
hcc14       109.609
dih14       177.509
hc15        1.094980
hcc15       108.806
dih15      -177.961
hc16        1.098006
hcc16       108.190
dih16        66.247
hc17        1.098954
hcc17       109.374
dih17        65.983
hc18        1.095682
hcc18       110.569
dih18      -177.017
 
 
 

