$RunGaus
%mem=8000Mb
%nproc=4
# mp2/cc-pVTZ

trans1-2difluorocycloh-ax-ax_single_point

0 1 
 c
 c   1 cc2     
 c    2 cc3         1 ccc3      
 c    3 cc4         2 ccc4          1 dih4   
 c    4 cc5         3 ccc5          2 dih5   
 c    5 cc6         4 ccc6          3 dih6   
 f    4 fc7         3 fcc7          2 dih7   
 f    5 fc8         4 fcc8          3 dih8   
 h    3 hc9         4 hcc9          5 dih9   
 h    3 hc10        4 hcc10         5 dih10  
 h    4 hc11        3 hcc11         2 dih11  
 h    5 hc12        4 hcc12         3 dih12  
 h    2 hc13        3 hcc13         4 dih13  
 h    2 hc14        3 hcc14         4 dih14  
 h    6 hc15        5 hcc15         4 dih15  
 h    6 hc16        5 hcc16         4 dih16  
 h    1 hc17        2 hcc17         3 dih17  
 h    1 hc18        2 hcc18         3 dih18  
 
cc2         1.537270
cc3         1.537698
ccc3        111.204
cc4         1.522197
ccc4        112.372
dih4         54.083
cc5         1.532791
ccc5        113.281
dih5        -50.403
cc6         1.522194
ccc6        113.280
dih6         48.660
fc7         1.418852
fcc7        109.347
dih7         67.733
fc8         1.418858
fcc8        106.127
dih8        -71.328
hc9         1.095672
hcc9        108.653
dih9       -174.054
hc10        1.097740
hcc10       107.237
dih10        70.507
hc11        1.094667
hcc11       111.591
dih11      -174.838
hc12        1.094666
hcc12       109.727
dih12       174.102
hc13        1.097378
hcc13       109.296
dih13       -67.104
hc14        1.095923
hcc14       109.510
dih14       176.287
hc15        1.095671
hcc15       108.652
dih15      -174.054
hc16        1.097738
hcc16       107.236
dih16        70.508
hc17        1.097380
hcc17       109.640
dih17        65.308
hc18        1.095927
hcc18       110.336
dih18      -177.402
 
 
 

