$RunGaus
%mem=8000Mb
%nproc=4
# mp2/cc-pVTZ

trans1-2dichlorocycloh-ax-ax_single_point

0 1 
 c
 c   1 cc2     
 c    2 cc3         1 ccc3      
 c    3 cc4         2 ccc4          1 dih4   
 c    4 cc5         3 ccc5          2 dih5   
 c    5 cc6         4 ccc6          3 dih6   
cl    4 clc7        3 clcc7         2 dih7   
cl    5 clc8        4 clcc8         3 dih8   
 h    3 hc9         4 hcc9          5 dih9   
 h    3 hc10        4 hcc10         5 dih10  
 h    4 hc11        3 hcc11         2 dih11  
 h    5 hc12        4 hcc12         3 dih12  
 h    2 hc13        3 hcc13         4 dih13  
 h    2 hc14        3 hcc14         4 dih14  
 h    6 hc15        5 hcc15         4 dih15  
 h    6 hc16        5 hcc16         4 dih16  
 h    1 hc17        2 hcc17         3 dih17  
 h    1 hc18        2 hcc18         3 dih18  
 
cc2         1.537394
cc3         1.536143
ccc3        111.369
cc4         1.529303
ccc4        113.081
dih4         53.409
cc5         1.536419
ccc5        113.417
dih5        -49.108
cc6         1.529308
ccc6        113.417
dih6         46.692
clc7        1.846335
clcc7       110.445
dih7         71.286
clc8        1.846338
clcc8       107.231
dih8        -75.507
hc9         1.097967
hcc9        106.543
dih9         71.306
hc10        1.094415
hcc10       109.205
dih10      -173.547
hc11        1.089985
hcc11       111.326
dih11      -173.969
hc12        1.089986
hcc12       110.124
dih12       172.197
hc13        1.095927
hcc13       109.245
dih13       175.445
hc14        1.097233
hcc14       109.428
dih14       -68.065
hc15        1.097967
hcc15       106.543
dih15        71.316
hc16        1.094414
hcc16       109.204
dih16      -173.539
hc17        1.095925
hcc17       110.259
dih17      -176.551
hc18        1.097234
hcc18       109.715
dih18        66.204
 
 
 

