$RunGaus
%mem=8000Mb
%nproc=4
# mp2/cc-pVTZ

trans1-2dimethylcycloh-ax-ax_single_point

0 1 
 c
 c   1 cc2     
 c    2 cc3         1 ccc3      
 c    3 cc4         2 ccc4          1 dih4   
 c    4 cc5         3 ccc5          2 dih5   
 c    5 cc6         4 ccc6          3 dih6   
 c    4 cc7         3 ccc7          2 dih7   
 c    5 cc8         4 ccc8          3 dih8   
 h    3 hc9         4 hcc9          5 dih9   
 h    3 hc10        4 hcc10         5 dih10  
 h    4 hc11        3 hcc11         2 dih11  
 h    5 hc12        4 hcc12         3 dih12  
 h    2 hc13        3 hcc13         4 dih13  
 h    2 hc14        3 hcc14         4 dih14  
 h    6 hc15        5 hcc15         4 dih15  
 h    6 hc16        5 hcc16         4 dih16  
 h    1 hc17        2 hcc17         3 dih17  
 h    1 hc18        2 hcc18         3 dih18  
 h    7 hc19        4 hcc19         3 dih19  
 h    7 hc20        4 hcc20         3 dih20  
 h    7 hc21        4 hcc21         3 dih21  
 h    8 hc22        5 hcc22         4 dih22  
 h    8 hc23        5 hcc23         4 dih23  
 h    8 hc24        5 hcc24         4 dih24  
 
cc2         1.536754
cc3         1.538071
ccc3        111.230
cc4         1.547004
ccc4        113.121
dih4         54.624
cc5         1.555578
ccc5        111.410
dih5        -52.874
cc6         1.547009
ccc6        111.410
dih6         51.043
cc7         1.539471
ccc7        111.905
dih7         73.404
cc8         1.539476
ccc8        112.020
dih8        -75.176
hc9         1.098516
hcc9        109.206
dih9         68.273
hc10        1.097854
hcc10       109.372
dih10      -176.099
hc11        1.099822
hcc11       107.336
dih11      -169.960
hc12        1.099821
hcc12       107.209
dih12       168.203
hc13        1.097226
hcc13       109.781
dih13       176.988
hc14        1.098752
hcc14       109.950
dih14       -66.543
hc15        1.098515
hcc15       109.205
dih15        68.275
hc16        1.097855
hcc16       109.372
dih16      -176.097
hc17        1.097226
hcc17       110.302
dih17      -176.558
hc18        1.098751
hcc18       109.263
dih18        67.073
hc19        1.096205
hcc19       110.827
dih19       176.187
hc20        1.094962
hcc20       112.502
dih20       -63.517
hc21        1.096304
hcc21       110.780
dih21        56.725
hc22        1.096205
hcc22       110.827
dih22       -57.866
hc23        1.094961
hcc23       112.503
dih23        62.430
hc24        1.096304
hcc24       110.780
dih24      -177.328
 
 
 

