$RunGaus
%mem=8000Mb
%nproc=4
# mp2/cc-pVTZ

trimethylsilylcyclohexane-eq_single_point

0 1 
 c
 c   1 cc2     
 c    2 cc3         1 ccc3      
 c    3 cc4         2 ccc4          1 dih4   
 c    4 cc5         3 ccc5          2 dih5   
 c    5 cc6         4 ccc6          3 dih6   
si    1 sic7        2 sicc7         3 dih7   
 c    7 csi8        1 csic8         2 dih8   
 c    7 csi9        1 csic9         2 dih9   
 c    7 csi10       1 csic10        2 dih10  
 h    3 hc11        4 hcc11         5 dih11  
 h    3 hc12        4 hcc12         5 dih12  
 h    4 hc13        3 hcc13         2 dih13  
 h    4 hc14        3 hcc14         2 dih14  
 h    5 hc15        4 hcc15         3 dih15  
 h    5 hc16        4 hcc16         3 dih16  
 h    2 hc17        3 hcc17         4 dih17  
 h    2 hc18        3 hcc18         4 dih18  
 h    6 hc19        5 hcc19         4 dih19  
 h    6 hc20        5 hcc20         4 dih20  
 h    1 hc21        2 hcc21         3 dih21  
 h    9 hc22        7 hcsi22        1 dih22  
 h    9 hc23        7 hcsi23        1 dih23  
 h    9 hc24        7 hcsi24        1 dih24  
 h   10 hc25        7 hcsi25        1 dih25  
 h   10 hc26        7 hcsi26        1 dih26  
 h   10 hc27        7 hcsi27        1 dih27  
 h    8 hc28        7 hcsi28        1 dih28  
 h    8 hc29        7 hcsi29        1 dih29  
 h    8 hc30        7 hcsi30        1 dih30  
 
cc2         1.547340
cc3         1.539229
ccc3        112.312
cc4         1.536047
ccc4        111.691
dih4         54.952
cc5         1.536048
ccc5        111.312
dih5        -54.381
cc6         1.539229
ccc6        111.691
dih6         54.381
sic7        1.912670
sicc7       113.483
dih7        177.506
csi8        1.897369
csic8       109.418
dih8        -57.210
csi9        1.897038
csic9       111.068
dih9         63.315
csi10       1.897375
csic10      109.420
dih10      -176.159
hc11        1.097751
hcc11       110.262
dih11      -177.078
hc12        1.099983
hcc12       109.167
dih12        66.204
hc13        1.097333
hcc13       110.320
dih13      -177.197
hc14        1.100210
hcc14       109.151
dih14        66.167
hc15        1.099980
hcc15       109.167
dih15       -66.203
hc16        1.097751
hcc16       110.262
dih16       177.077
hc17        1.100529
hcc17       108.660
dih17       -66.142
hc18        1.097089
hcc18       109.472
dih18       178.104
hc19        1.097090
hcc19       109.472
dih19      -178.103
hc20        1.100528
hcc20       108.660
dih20        66.143
hc21        1.104760
hcc21       107.173
dih21        62.140
hc22        1.096530
hcsi22      110.593
dih22       180.000
hc23        1.096031
hcsi23      111.663
dih23       -60.327
hc24        1.096031
hcsi24      111.664
dih24        60.327
hc25        1.096522
hcsi25      110.763
dih25       176.512
hc26        1.095910
hcsi26      111.908
dih26       -63.594
hc27        1.096638
hcsi27      111.321
dih27        56.936
hc28        1.096521
hcsi28      110.766
dih28      -176.506
hc29        1.096637
hcsi29      111.322
dih29       -56.927
hc30        1.095912
hcsi30      111.905
dih30        63.600
 
 
 

