$RunGaus
%mem=8000Mb
%nproc=4
# mp2/cc-pVTZ

trimethylsilylcyclohexane-ax_single_point

0 1 
 c
 c   1 cc2     
 c    2 cc3         1 ccc3      
 c    3 cc4         2 ccc4          1 dih4   
 c    4 cc5         3 ccc5          2 dih5   
 c    5 cc6         4 ccc6          3 dih6   
si    1 sic7        2 sicc7         3 dih7   
 c    7 csi8        1 csic8         2 dih8   
 c    7 csi9        1 csic9         2 dih9   
 c    7 csi10       1 csic10        2 dih10  
 h    3 hc11        4 hcc11         5 dih11  
 h    3 hc12        4 hcc12         5 dih12  
 h    4 hc13        3 hcc13         2 dih13  
 h    4 hc14        3 hcc14         2 dih14  
 h    5 hc15        4 hcc15         3 dih15  
 h    5 hc16        4 hcc16         3 dih16  
 h    2 hc17        3 hcc17         4 dih17  
 h    2 hc18        3 hcc18         4 dih18  
 h    6 hc19        5 hcc19         4 dih19  
 h    6 hc20        5 hcc20         4 dih20  
 h    1 hc21        2 hcc21         3 dih21  
 h    9 hc22        7 hcsi22        1 dih22  
 h    9 hc23        7 hcsi23        1 dih23  
 h    9 hc24        7 hcsi24        1 dih24  
 h   10 hc25        7 hcsi25        1 dih25  
 h   10 hc26        7 hcsi26        1 dih26  
 h   10 hc27        7 hcsi27        1 dih27  
 h    8 hc28        7 hcsi28        1 dih28  
 h    8 hc29        7 hcsi29        1 dih29  
 h    8 hc30        7 hcsi30        1 dih30  
 
cc2         1.550274
cc3         1.538254
ccc3        113.319
cc4         1.536585
ccc4        111.493
dih4         54.318
cc5         1.536586
ccc5        111.445
dih5        -54.653
cc6         1.538263
ccc6        111.493
dih6         54.651
sic7        1.921731
sicc7       116.105
dih7         82.148
csi8        1.898600
csic8       107.897
dih8        172.717
csi9        1.899233
csic9       116.396
dih9        -65.741
csi10       1.898602
csic10      107.898
dih10        55.806
hc11        1.097481
hcc11       110.097
dih11      -176.566
hc12        1.097975
hcc12       109.174
dih12        67.031
hc13        1.097288
hcc13       110.331
dih13      -177.584
hc14        1.100181
hcc14       109.045
dih14        65.777
hc15        1.097974
hcc15       109.173
dih15       -67.032
hc16        1.097481
hcc16       110.098
dih16       176.565
hc17        1.101375
hcc17       107.955
dih17       -65.800
hc18        1.097076
hcc18       110.061
dih18       179.049
hc19        1.097077
hcc19       110.060
dih19      -179.045
hc20        1.101375
hcc20       107.955
dih20        65.805
hc21        1.103296
hcc21       106.619
dih21      -167.329
hc22        1.097169
hcsi22      109.552
dih22       179.998
hc23        1.095335
hcsi23      112.186
dih23       -60.752
hc24        1.095331
hcsi24      112.192
dih24        60.744
hc25        1.096561
hcsi25      110.548
dih25       173.212
hc26        1.095934
hcsi26      112.053
dih26       -67.070
hc27        1.096485
hcsi27      111.501
dih27        53.635
hc28        1.096560
hcsi28      110.550
dih28      -173.219
hc29        1.096487
hcsi29      111.499
dih29       -53.641
hc30        1.095934
hcsi30      112.053
dih30        67.062
 
 
 

