# opt dreiding

2-methylthiane-ax

0 1
 C                 -0.41834375   -1.58007812   -0.96014062
 C                 -1.29934375   -1.12407813    0.21385937
 S                 -1.21034375    0.66892187    0.27085937
 C                  1.04065625   -1.09807813   -0.84814062
 C                  0.50865625    1.20892187    0.22485937
 C                  1.19565625    0.43392187   -0.91414063
 H                 -0.85334375   -1.22907813   -1.92714063
 H                 -0.43034375   -2.69607813   -0.99914063
 H                 -0.91334375   -1.56407812    1.16185937
 H                 -2.35134375   -1.47107813    0.08385937
 H                  1.62565625   -1.54807812   -1.68614062
 H                  1.49465625   -1.49207813    0.09085937
 H                  0.55665625    2.30492187    0.01485937
 H                  2.28165625    0.69192187   -0.91314063
 H                  0.79765625    0.78792187   -1.89614062
 C                  1.16165625    0.95992187    1.59385938
 H                  0.67065625    1.56292188    2.39285938
 H                  2.23565625    1.25492187    1.57485937
 H                  1.11765625   -0.10807813    1.90785938

 1 2 1.0 4 1.0 7 1.0 8 1.0
 2 3 1.0 9 1.0 10 1.0
 3 5 1.0
 4 6 1.0 11 1.0 12 1.0
 5 6 1.0 13 1.0 16 1.0
 6 14 1.0 15 1.0
 7
 8
 9
 10
 11
 12
 13
 14
 15
 16 17 1.0 18 1.0 19 1.0
 17
 18
 19

