# opt dreiding

ehtanethiol-g

0 1
 H                 -1.32961765   -1.56747059    0.07347059
 S                 -0.89861765   -0.46747059   -0.56952941
 C                  0.82138235    0.27852941   -0.26152941
 H                  0.97338235    1.15752941   -0.93052941
 C                  0.90138235    0.70552941    1.20847059
 H                  1.60738235   -0.47747059   -0.49352941
 H                  0.76338235   -0.16147059    1.89447059
 H                  0.12938235    1.47152941    1.45447059
 H                  1.89738235    1.15252941    1.43247059

 1 2 1.0
 2
 3 4 1.0 5 1.0 6 1.0
 4
 5 7 1.0 8 1.0 9 1.0
 6
 7
 8
 9

