# opt dreiding

ehtanethiol-a

0 1
 H                 -1.32729412   -1.82361765    0.63673529
 S                 -0.91329412   -0.69061765    0.04173529
 C                  0.80770588    0.05038235    0.35673529
 H                  1.59270588   -0.68561765    0.06773529
 C                  0.93870588    1.32938235   -0.47826471
 H                  0.92570588    0.27938235    1.44173529
 H                  0.16870588    2.08438235   -0.19426471
 H                  0.83670588    1.11838235   -1.56826471
 H                  1.93770588    1.79838235   -0.32226471

 1 2 1.0
 2
 3 4 1.0 5 1.0 6 1.0
 4
 5 7 1.0 8 1.0 9 1.0
 6
 7
 8
 9

