# opt dreiding

MeEt-sulfone-a

0 1
 C                  1.39339655   -1.83317241    0.00000000
 C                  1.33739655   -0.30117241    0.00000000
 S                 -0.37360345    0.21882759    0.00000000
 C                 -0.26660345    1.99982759    0.00000000
 O                 -1.00160345   -0.20717241   -1.23500000
 O                 -1.00160345   -0.20717241    1.23500000
 H                  2.45339655   -2.17717241    0.00000000
 H                  0.91139655   -2.27217241    0.90400000
 H                  0.91139655   -2.27217241   -0.90400000
 H                  1.83839655    0.11082759    0.90600000
 H                  1.83839655    0.11082759   -0.90600000
 H                 -1.29160345    2.43282759    0.00000000
 H                  0.27839655    2.34382759    0.90800000
 H                  0.27839655    2.34382759   -0.90800000

 1 2 1.0 7 1.0 8 1.0 9 1.0
 2 3 1.0 10 1.0 11 1.0
 3 4 1.0 5 2.0 6 2.0
 4 12 1.0 13 1.0 14 1.0
 5
 6
 7
 8
 9
 10
 11
 12
 13
 14

