# opt dreiding

methylethylsulfide-g

0 1
 C                  0.21014286   -1.65957143   -0.90990476
 C                 -0.58685714   -1.07257143    0.26309524
 S                 -0.52385714    0.72442857    0.21209524
 C                  1.12814286    1.41142857    0.29509524
 H                  0.14914286   -2.77257143   -0.90590476
 H                 -0.18585714   -1.31157143   -1.89290476
 H                 -1.64485714   -1.41957143    0.20809524
 H                  1.29114286   -1.39257143   -0.85490476
 H                 -0.16385714   -1.44657143    1.22509524
 H                  1.07114286    2.52342857    0.29109524
 H                  1.63014286    1.07442857    1.22909524
 H                  1.72614286    1.07842857   -0.58290476

 1 2 1.0 5 1.0 6 1.0 8 1.0
 2 3 1.0 7 1.0 9 1.0
 3 4 1.0
 4 10 1.0 11 1.0 12 1.0
 5
 6
 7
 8
 9
 10
 11
 12

