# opt dreiding

sulfolane-halfchair

0 1
 C                 -0.56932813   -1.31435938   -0.00498437
 S                 -0.56432813    0.47464063    0.00001563
 O                 -1.14532813    0.95064062    1.23901562
 O                 -1.13432813    0.96464062   -1.23898437
 C                  1.19667187    0.78664062    0.00501563
 C                  1.75967187   -0.59335937    0.36101563
 C                  0.88767187   -1.63135937   -0.36098438
 H                 -1.30932813   -1.72535937   -0.72998438
 H                 -0.80532813   -1.67535937    1.02301562
 H                  1.47467187    1.58664063    0.73001563
 H                  1.51167187    1.08164062   -1.02298438
 H                  1.71567187   -0.76035937    1.46401563
 H                  2.82967187   -0.67935937    0.05401563
 H                  1.15667187   -2.67035938   -0.05498437
 H                  1.04467187   -1.55935937   -1.46398437

 1 2 1.0 7 1.0 8 1.0 9 1.0
 2 3 2.0 4 2.0 5 1.0
 3
 4
 5 6 1.0 10 1.0 11 1.0
 6 7 1.0 12 1.0 13 1.0
 7 14 1.0 15 1.0
 8
 9
 10
 11
 12
 13
 14
 15

