# opt dreiding

thiacyclohexane-ch

0 1
 C                 -0.18505357   -1.47076786   -0.67071429
 C                 -1.11305357   -1.00476786    0.46328571
 S                 -1.05805357    0.79123214    0.48528571
 C                  1.25494643   -0.93776786   -0.53471429
 C                  0.64894643    1.35123214    0.46228571
 C                  1.35794643    0.59323214   -0.67071429
 H                 -0.60205357   -1.16676786   -1.66071429
 H                 -0.16105357   -2.58776786   -0.67171429
 H                 -0.74405357   -1.41076786    1.43328571
 H                 -2.15205357   -1.37776786    0.31128571
 H                  1.88494643   -1.40876786   -1.32771429
 H                  1.68194643   -1.25676786    0.44528571
 H                  1.14294643    1.11323214    1.43228571
 H                  2.43594643    0.88623214   -0.67271429
 H                  0.94794643    0.90823214   -1.66071429
 H                  0.71194643    2.45423214    0.31028571

 1 2 1.0 4 1.0 7 1.0 8 1.0
 2 3 1.0 9 1.0 10 1.0
 3 5 1.0
 4 6 1.0 11 1.0 12 1.0
 5 6 1.0 13 1.0 16 1.0
 6 14 1.0 15 1.0
 7
 8
 9
 10
 11
 12
 13
 14
 15
 16

