# opt uff

1,2-diSO2Me-Et-C2h

0 1
 C                  0.03190816   -0.76822449    0.03664286
 C                 -0.03209184    0.76877551   -0.03635714
 S                 -1.74609184    1.26977551    0.12164286
 C                 -1.68009184    3.04677551    0.02064286
 O                 -2.48109184    0.75177551   -1.01535714
 O                 -2.21809184    0.87977551    1.43464286
 S                  1.74590816   -1.27022449   -0.12135714
 H                 -0.34609184   -1.15222449    1.01364286
 H                 -0.54109184   -1.24722449   -0.79135714
 H                  0.54090816    1.24677551    0.79164286
 H                  0.34690816    1.15177551   -1.01335714
 H                 -2.70909184    3.46177551    0.10964286
 H                 -1.05009184    3.44677551    0.84764286
 H                 -1.24409184    3.35177551   -0.95635714
 O                  2.21790816   -0.88022449   -1.43535714
 O                  2.48190816   -0.75122449    1.01464286
 C                  1.67990816   -3.04622449   -0.02035714
 H                  2.70890816   -3.46122449   -0.10935714
 H                  1.24390816   -3.35122449    0.95764286
 H                  1.04990816   -3.44722449   -0.84635714

 1 2 1.0 7 1.0 8 1.0 9 1.0
 2 3 1.0 10 1.0 11 1.0
 3 4 1.0 5 2.0 6 2.0
 4 12 1.0 13 1.0 14 1.0
 5
 6
 7 15 2.0 16 2.0 17 1.0
 8
 9
 10
 11
 12
 13
 14
 15
 16
 17 18 1.0 19 1.0 20 1.0
 18
 19
 20

