# opt uff

1-3-butadiene-t

0 1
 C                  0.63206667   -1.70500000    0.00000000
 C                  0.63206667   -0.36500000    0.00000000
 C                 -0.63193333    0.36500000    0.00000000
 C                 -0.63193333    1.70500000    0.00000000
 H                  1.56706667   -2.24500000    0.00000000
 H                 -0.30293333   -2.24500000    0.00000000
 H                  1.56706667    0.17500000    0.00000000
 H                 -1.56793333   -0.17500000    0.00000000
 H                 -1.56793333    2.24500000    0.00000000
 H                  0.30306667    2.24500000    0.00000000

 1 2 2.0 5 1.0 6 1.0
 2 3 1.0 7 1.0
 3 4 2.0 8 1.0
 4 9 1.0 10 1.0
 5
 6
 7
 8
 9
 10

