# opt uff

2-methyl-1,3-butadiene-cis

0 1
 C                  0.41126316   -1.42584211   -0.00002632
 C                  0.38826316   -0.08084211   -0.00002632
 C                 -0.74673684    0.64615789   -0.00002632
 C                 -2.00973684    0.19415789   -0.00002632
 H                  1.37326316   -1.96384211   -0.00002632
 H                 -0.48573684   -2.06184211   -0.00002632
 C                  1.72726316    0.63315789   -0.00002632
 H                 -0.64173684    1.74515789   -0.00002632
 H                 -2.85373684    0.90415789   -0.00002632
 H                 -2.28373684   -0.87184211   -0.00002632
 H                  1.63926316    1.74315789   -0.00002632
 H                  2.31526316    0.35215789    0.90397368
 H                  2.31526316    0.35215789   -0.90302632

 1 2 2.0 5 1.0 6 1.0
 2 3 2.0 7 1.0
 3 4 2.0 8 1.0
 4 9 1.0 10 1.0
 5
 6
 7 11 1.0 12 1.0 13 1.0
 8
 9
 10
 11
 12
 13

