# opt uff

2-methylpropenal-cis

0 1
 C                  0.31531579   -1.39697368   -0.26826316
 C                  0.36531579   -0.07197368   -0.04626316
 C                 -0.80268421    0.58402632    0.17473684
 O                 -1.91268421    0.10702632    0.19673684
 C                  1.67531579    0.67902632   -0.04026316
 H                  1.23631579   -1.97097368   -0.45326316
 H                 -0.62368421   -1.97597368   -0.28026316
 H                 -0.69268421    1.67802632    0.35273684
 H                  1.67331579    1.46802632   -0.82626316
 H                  1.83931579    1.16402632    0.94873684
 H                  2.54931579    0.01602632   -0.23526316

 1 2 2.0 6 1.0 7 1.0
 2 3 2.0 5 1.0
 3 4 2.0 8 1.0
 4
 5 9 1.0 10 1.0 11 1.0
 6
 7
 8
 9
 10
 11

