# opt uff

Dioxaphosphoriane-OH-ax

0 1
 H                  2.05242045   -1.54615909   -1.58877273
 O                  1.24142045   -1.12015909   -1.80677273
 O                 -1.20757955   -0.54615909   -0.65877273
 C                 -1.03757955    0.84984091   -0.74677273
 C                 -0.37057955    1.43184091    0.52022727
 P                  0.28742045   -1.29215909   -0.43277273
 C                  1.04942045    0.84784091    0.69722727
 O                  1.02642045   -0.54815909    0.88722727
 H                 -0.47457955    1.09584091   -1.67877273
 H                 -2.06357955    1.26584091   -0.86677273
 C                 -0.25157955    2.96184091    0.35022727
 C                 -1.23257955    1.14084091    1.76622727
 O                  0.06842045   -2.84515909   -0.11677273
 H                  1.72442045    1.09484091   -0.15777273
 H                  1.52342045    1.26284091    1.61622727
 H                 -1.25157955    3.43484091    0.21722727
 H                  0.36442045    3.22384091   -0.53977273
 H                  0.22542045    3.43284091    1.23922727
 H                 -1.35657955    0.04884091    1.94422727
 H                 -2.25257955    1.57684091    1.66122727
 H                 -0.77457955    1.57584091    2.68322727

 1 2 1.0
 2 6 1.0
 3 4 1.0 6 1.0
 4 5 1.0 9 1.0 10 1.0
 5 7 1.0 11 1.0 12 1.0
 6 8 1.0 13 1.5
 7 8 1.0 14 1.0 15 1.0
 8
 9
 10
 11 16 1.0 17 1.0 18 1.0
 12 19 1.0 20 1.0 21 1.0
 13
 14
 15
 16
 17
 18
 19
 20
 21

