# opt uff

Dioxaphosphoriane-H-ax

0 1
 O                 -1.10883750   -0.62425000   -0.84655000
 C                 -1.04983750    0.77875000   -0.72255000
 C                 -0.31683750    1.21875000    0.56445000
 P                  0.49016250   -1.25825000   -0.87055000
 C                  1.16216250    0.77275000    0.53145000
 O                  1.29316250   -0.63025000    0.51445000
 H                 -0.59383750    1.21075000   -1.64555000
 H                 -2.11183750    1.11475000   -0.69355000
 C                 -0.35483750    2.76175000    0.63945000
 C                 -1.02483750    0.65075000    1.81145000
 O                  0.44616250   -2.87325000   -0.80055000
 H                  1.72216250    1.20475000   -0.33255000
 H                  1.68516250    1.10575000    1.45745000
 H                 -1.40183750    3.14175000    0.66645000
 H                  0.14616250    3.22275000   -0.24255000
 H                  0.16016250    3.13775000    1.55245000
 H                 -1.03183750   -0.46225000    1.81845000
 H                 -2.08483750    0.98775000    1.86245000
 H                 -0.52183750    0.98375000    2.74745000
 H                  1.14116250   -0.84825000   -2.01655000

 1 2 1.0 4 1.0
 2 3 1.0 7 1.0 8 1.0
 3 5 1.0 9 1.0 10 1.0
 4 6 1.0 11 1.0 20 1.0
 5 6 1.0 12 1.0 13 1.0
 6
 7
 8
 9 14 1.0 15 1.0 16 1.0
 10 17 1.0 18 1.0 19 1.0
 11
 12
 13
 14
 15
 16
 17
 18
 19
 20

