# opt uff

Dioxaphosphoriane-OH-eq

0 1
 H                 -0.34918182   -3.23484091   -0.88340909
 O                  0.09181818   -2.89784091   -0.12240909
 O                 -1.16918182   -0.51584091   -0.68440909
 C                 -1.00318182    0.88215909   -0.76140909
 C                 -0.34118182    1.45815909    0.50959091
 P                  0.32181818   -1.26484091   -0.45040909
 C                  1.08181818    0.88115909    0.68259091
 O                  1.06581818   -0.51684091    0.86559091
 H                 -0.43918182    1.13615909   -1.69140909
 H                 -2.03018182    1.29615909   -0.88140909
 C                 -0.22918182    2.99015909    0.35059091
 C                 -1.20218182    1.15615909    1.75259091
 O                  1.22881818   -1.10384091   -1.75840909
 H                  1.75481818    1.13415909   -0.17140909
 H                  1.55481818    1.29315909    1.60359091
 H                 -1.23118182    3.45915909    0.21959091
 H                  0.38581818    3.26115909   -0.53740909
 H                  0.24581818    3.45815909    1.24259091
 H                 -1.32218182    0.06215909    1.92459091
 H                 -2.22418182    1.58815909    1.65059091
 H                 -0.74718182    1.58715909    2.67359091

 1 2 1.0
 2 6 1.0
 3 4 1.0 6 1.0
 4 5 1.0 9 1.0 10 1.0
 5 7 1.0 11 1.0 12 1.0
 6 8 1.0 13 1.5
 7 8 1.0 14 1.0 15 1.0
 8
 9
 10
 11 16 1.0 17 1.0 18 1.0
 12 19 1.0 20 1.0 21 1.0
 13
 14
 15
 16
 17
 18
 19
 20
 21

