# opt uff

DNE-a

0 1
 N                  0.74022581   -1.79411290    0.00000000
 C                  0.72022581   -0.28511290    0.00000000
 N                 -0.73977419    1.79488710    0.00000000
 C                 -0.72077419    0.28488710    0.00000000
 H                  1.26622581    0.07088710    0.90600000
 H                  1.26622581    0.07088710   -0.90600000
 H                 -1.26577419   -0.07111290    0.90600000
 H                 -1.26577419   -0.07111290   -0.90600000
 O                 -1.84577419    2.31788710    0.00000000
 O                  0.34022581    2.36388710    0.00000000
 O                  1.84522581   -2.31811290    0.00000000
 O                 -0.33977419   -2.36411290    0.00000000

 1 2 1.0 11 2.0 12 2.0
 2 4 1.0 5 1.0 6 1.0
 3 4 1.0 9 2.0 10 2.0
 4 7 1.0 8 1.0
 5
 6
 7
 8
 9
 10
 11
 12

