$RunGaus
%mem=16000Mb
%nproc=8
# mp2/cc-pVTZ

ethylphosphine_g_single_point

0 1 
 c
 c   1 cc2     
 p    1 pc3         2 pcc3      
 h    3 hp4         1 hpc4          2 dih4   
 h    3 hp5         1 hpc5          2 dih5   
 h    1 hc6         3 hcp6          4 dih6   
 h    1 hc7         3 hcp7          4 dih7   
 h    2 hc8         1 hcc8          3 dih8   
 h    2 hc9         1 hcc9          3 dih9   
 h    2 hc10        1 hcc10         3 dih10  
 
cc2         1.533920
pc3         1.884866
pcc3        111.777
hp4         1.425115
hpc4         97.608
dih4        168.544
hp5         1.425955
hpc5         97.449
dih5         73.907
hc6         1.096432
hcp6        106.370
dih6        -71.485
hc7         1.094446
hcp7        110.928
dih7         44.669
hc8         1.095762
hcc8        110.850
dih8        176.764
hc9         1.095922
hcc9        111.387
dih9        -63.581
hc10        1.095534
hcc10       111.458
dih10        56.715
 
 
 

