$RunGaus
%mem=16000Mb
%nproc=8
# mp2/cc-pVTZ

trimethylphosphate_C3_single_point

0 1 
 c
 o   1 oc2     
 p    2 po3         1 poc3      
 o    3 op4         2 opo4          1 dih4   
 c    4 co5         3 cop5          2 dih5   
 o    3 op6         2 opo6          1 dih6   
 o    3 op7         2 opo7          1 dih7   
 c    7 co8         3 cop8          2 dih8   
 h    1 hc9         2 hco9          3 dih9   
 h    1 hc10        2 hco10         3 dih10  
 h    1 hc11        2 hco11         3 dih11  
 h    8 hc12        7 hco12         3 dih12  
 h    8 hc13        7 hco13         3 dih13  
 h    8 hc14        7 hco14         3 dih14  
 h    5 hc15        4 hco15         3 dih15  
 h    5 hc16        4 hco16         3 dih16  
 h    5 hc17        4 hco17         3 dih17  
 
oc2         1.443116
po3         1.605911
poc3        119.586
op4         1.606028
opo4        102.214
dih4       -168.654
co5         1.443223
cop5        119.593
dih5         86.165
op6         1.485579
opo6        116.053
dih6        -41.395
op7         1.606048
opo7        102.175
dih7         85.861
co8         1.443130
cop8        119.534
dih8       -168.606
hc9         1.090450
hco9        105.992
dih9        171.273
hc10        1.094173
hco10       110.157
dih10       -70.163
hc11        1.092872
hco11       110.506
dih11        51.732
hc12        1.090447
hco12       105.989
dih12       171.677
hc13        1.094195
hco13       110.179
dih13       -69.745
hc14        1.092854
hco14       110.494
dih14        52.146
hc15        1.090452
hco15       105.980
dih15       171.422
hc16        1.094186
hco16       110.223
dih16       -69.997
hc17        1.092858
hco17       110.481
dih17        51.911
 
 
 

