# opt dreiding

1,2-dichloroethane-g

0 1
 C                  0.82704000   -0.77734000   -0.36914000
 C                  0.84904000    0.75966000   -0.35514000
 Cl                -0.10196000   -1.46634000    1.01086000
 Cl                -0.78096000    1.47566000   -0.62914000
 H                  0.37004000   -1.17534000   -1.30514000
 H                  1.86104000   -1.18134000   -0.27714000
 H                  1.22504000    1.15866000    0.61486000
 H                  1.49704000    1.14566000   -1.17614000

 1 2 1.0 3 1.0 5 1.0 6 1.0
 2 4 1.0 7 1.0 8 1.0
 3
 4
 5
 6
 7
 8

