# opt dreiding

1,3-dichloropropane-a,g

0 1
 C                  0.83918966   -1.42022414   -0.40667241
 C                  0.78818966    0.11477586   -0.38767241
 C                 -0.64181034    0.67377586   -0.40067241
 Cl                -0.63381034    2.47177586   -0.47367241
 Cl                 0.14418966   -2.13622414    1.08932759
 H                  0.26018966   -1.83422414   -1.26367241
 H                  1.89018966   -1.78522414   -0.46967241
 H                  1.34218966    0.49677586    0.50432759
 H                  1.33018966    0.48677586   -1.29067241
 H                 -1.20581034    0.32077586   -1.29567241
 H                 -1.20681034    0.40077586    0.51932759

 1 2 1.0 5 1.0 6 1.0 7 1.0
 2 3 1.0 8 1.0 9 1.0
 3 4 1.0 10 1.0 11 1.0
 4
 5
 6
 7
 8
 9
 10
 11

