# opt dreiding

1,3-dichloropropane-a,a

0 1
 C                  0.16581034   -1.43275862    0.00000000
 C                  0.14381034    0.10224138    0.00000000
 C                 -1.29618966    0.63424138    0.00000000
 Cl                -1.32718966    2.43324138    0.00000000
 Cl                 1.85181034   -2.06275862    0.00000000
 H                 -0.33018966   -1.84575862    0.90900000
 H                 -0.33018966   -1.84575862   -0.90900000
 H                  0.68081034    0.48124138    0.90200000
 H                  0.68081034    0.48124138   -0.90200000
 H                 -1.85018966    0.30424138   -0.90900000
 H                 -1.85018966    0.30424138    0.90900000

 1 2 1.0 5 1.0 6 1.0 7 1.0
 2 3 1.0 8 1.0 9 1.0
 3 4 1.0 10 1.0 11 1.0
 4
 5
 6
 7
 8
 9
 10
 11

