# opt dreiding

fluoropropane-a

0 1
 C                 -0.03811765   -0.80400000    0.06829412
 C                 -0.02511765    0.73000000    0.03929412
 F                 -0.70811765   -1.25200000    1.20529412
 H                 -0.54711765   -1.20100000   -0.83970588
 H                  1.00488235   -1.19800000    0.07529412
 H                 -1.07511765    1.11000000    0.04829412
 H                  0.47388235    1.11300000    0.96229412
 C                  0.70288235    1.27300000   -1.19670588
 H                  0.70388235    2.38800000   -1.20370588
 H                  1.76388235    0.93300000   -1.21970588
 H                  0.21088235    0.92900000   -2.13570588

 1 2 1.0 3 1.0 4 1.0 5 1.0
 2 6 1.0 7 1.0 8 1.0
 3
 4
 5
 6
 7
 8 9 1.0 10 1.0 11 1.0
 9
 10
 11

