$RunGaus
%mem=8000Mb
%nproc=4
# mp2/cc-pVTZ

2_3_dimethy_butane_a_single_point

0 1 
 c
 c   1 cc2     
 c    2 cc3         1 ccc3      
 c    2 cc4         3 ccc4          1 dih4   
 c    4 cc5         2 ccc5          3 dih5   
 c    4 cc6         2 ccc6          1 dih6   
 h    1 hc7         2 hcc7          4 dih7   
 h    1 hc8         2 hcc8          4 dih8   
 h    1 hc9         2 hcc9          4 dih9   
 h    2 hc10        4 hcc10         6 dih10  
 h    4 hc11        2 hcc11         1 dih11  
 h    6 hc12        4 hcc12         2 dih12  
 h    6 hc13        4 hcc13         2 dih13  
 h    6 hc14        4 hcc14         2 dih14  
 h    3 hc15        2 hcc15         1 dih15  
 h    3 hc16        2 hcc16         1 dih16  
 h    3 hc17        2 hcc17         1 dih17  
 h    5 hc18        4 hcc18         2 dih18  
 h    5 hc19        4 hcc19         2 dih19  
 h    5 hc20        4 hcc20         2 dih20  
 
cc2         1.539236
cc3         1.539242
ccc3        109.297
cc4         1.554487
ccc4        112.399
dih4        125.516
cc5         1.539238
ccc5        112.395
dih5       -179.984
cc6         1.539241
ccc6        112.399
dih6       -179.984
hc7         1.095754
hcc7        110.587
dih7       -177.715
hc8         1.097994
hcc8        110.816
dih8        -58.645
hc9         1.093510
hcc9        112.540
dih9         62.200
hc10        1.102108
hcc10       107.027
dih10       -61.890
hc11        1.102108
hcc11       107.026
dih11        61.918
hc12        1.095752
hcc12       110.586
dih12       177.702
hc13        1.093507
hcc13       112.540
dih13       -62.212
hc14        1.097996
hcc14       110.816
dih14        58.632
hc15        1.093507
hcc15       112.540
dih15       172.272
hc16        1.097996
hcc16       110.816
dih16       -66.883
hc17        1.095753
hcc17       110.586
dih17        52.186
hc18        1.095752
hcc18       110.586
dih18      -177.714
hc19        1.097996
hcc19       110.816
dih19       -58.645
hc20        1.093508
hcc20       112.540
dih20        62.200
 
 
 

