$RunGaus
%mem=8000Mb
%nproc=4
# mp2/cc-pVTZ

cyclooctane_BC_single_point

0 1 
 c
 c   1 cc2     
 c    2 cc3         1 ccc3      
 c    3 cc4         2 ccc4          1 dih4   
 c    4 cc5         3 ccc5          2 dih5   
 c    5 cc6         4 ccc6          3 dih6   
 c    6 cc7         5 ccc7          4 dih7   
 c    7 cc8         6 ccc8          5 dih8   
 h    1 hc9         8 hcc9          7 dih9   
 h    1 hc10        8 hcc10         7 dih10  
 h    8 hc11        1 hcc11         2 dih11  
 h    8 hc12        1 hcc12         2 dih12  
 h    2 hc13        1 hcc13         8 dih13  
 h    2 hc14        1 hcc14         8 dih14  
 h    7 hc15        8 hcc15         1 dih15  
 h    7 hc16        8 hcc16         1 dih16  
 h    3 hc17        2 hcc17         1 dih17  
 h    3 hc18        2 hcc18         1 dih18  
 h    4 hc19        3 hcc19         2 dih19  
 h    4 hc20        3 hcc20         2 dih20  
 h    6 hc21        7 hcc21         8 dih21  
 h    6 hc22        7 hcc22         8 dih22  
 h    5 hc23        4 hcc23         3 dih23  
 h    5 hc24        4 hcc24         3 dih24  
 
cc2         1.542099
cc3         1.542109
ccc3        119.067
cc4         1.548054
ccc4        116.012
dih4        -65.178
cc5         1.544694
ccc5        115.919
dih5         99.635
cc6         1.536925
ccc6        117.617
dih6        -43.761
cc7         1.536927
ccc7        117.766
dih7        -63.952
cc8         1.544690
ccc8        117.617
dih8         63.956
hc9         1.098937
hcc9        110.033
dih9         25.812
hc10        1.097513
hcc10       108.486
dih10       140.565
hc11        1.097377
hcc11       108.924
dih11       139.761
hc12        1.096239
hcc12       109.072
dih12        25.448
hc13        1.098823
hcc13       107.675
dih13      -172.023
hc14        1.100540
hcc14       107.993
dih14       -58.330
hc15        1.099198
hcc15       107.901
dih15       -77.304
hc16        1.099429
hcc16       108.641
dih16       168.487
hc17        1.098937
hcc17       109.842
dih17        60.366
hc18        1.097514
hcc18       106.531
dih18       173.968
hc19        1.097378
hcc19       108.925
dih19      -139.760
hc20        1.096239
hcc20       109.072
dih20       -25.447
hc21        1.097651
hcc21       109.168
dih21       -61.204
hc22        1.098409
hcc22       107.462
dih22      -174.638
hc23        1.099201
hcc23       107.901
dih23        77.299
hc24        1.099428
hcc24       108.641
dih24      -168.492
 
 
 

