$RunGaus
%mem=8000Mb
%nproc=4
# mp2/cc-pVTZ

cyclooctane_tcc_single_point

0 1 
 c
 c   1 cc2     
 c    2 cc3         1 ccc3      
 c    3 cc4         2 ccc4          1 dih4   
 c    4 cc5         3 ccc5          2 dih5   
 c    5 cc6         4 ccc6          3 dih6   
 c    6 cc7         5 ccc7          4 dih7   
 c    7 cc8         6 ccc8          5 dih8   
 h    1 hc9         8 hcc9          7 dih9   
 h    1 hc10        8 hcc10         7 dih10  
 h    8 hc11        1 hcc11         2 dih11  
 h    8 hc12        1 hcc12         2 dih12  
 h    2 hc13        1 hcc13         8 dih13  
 h    2 hc14        1 hcc14         8 dih14  
 h    7 hc15        8 hcc15         1 dih15  
 h    7 hc16        8 hcc16         1 dih16  
 h    3 hc17        2 hcc17         1 dih17  
 h    3 hc18        2 hcc18         1 dih18  
 h    4 hc19        3 hcc19         2 dih19  
 h    4 hc20        3 hcc20         2 dih20  
 h    6 hc21        7 hcc21         8 dih21  
 h    6 hc22        7 hcc22         8 dih22  
 h    5 hc23        4 hcc23         3 dih23  
 h    5 hc24        4 hcc24         3 dih24  
 
cc2         1.540288
cc3         1.539337
ccc3        118.666
cc4         1.540366
ccc4        118.673
dih4        -80.089
cc5         1.541422
ccc5        118.424
dih5         82.994
cc6         1.540293
ccc6        118.410
dih6        -85.843
cc7         1.539334
ccc7        118.666
dih7         82.884
cc8         1.540366
ccc8        118.673
dih8        -80.090
hc9         1.097947
hcc9        106.764
dih9        154.042
hc10        1.100226
hcc10       109.388
dih10        40.386
hc11        1.097937
hcc11       106.749
dih11       154.041
hc12        1.100219
hcc12       109.382
dih12        40.396
hc13        1.100386
hcc13       109.253
dih13       -43.257
hc14        1.098187
hcc14       106.741
dih14      -156.869
hc15        1.098191
hcc15       106.726
dih15      -156.766
hc16        1.100387
hcc16       109.262
dih16       -43.164
hc17        1.098191
hcc17       106.563
dih17       159.589
hc18        1.100388
hcc18       109.294
dih18        46.055
hc19        1.097938
hcc19       106.580
dih19      -156.804
hc20        1.100219
hcc20       109.418
dih20       -43.228
hc21        1.100386
hcc21       109.290
dih21        46.033
hc22        1.098186
hcc22       106.564
dih22       159.572
hc23        1.097947
hcc23       106.764
dih23       154.043
hc24        1.100227
hcc24       109.388
dih24        40.387
 
 
 

