$RunGaus
%mem=8000Mb
%nproc=4
# mp2/cc-pVTZ

DiPhEt_g_single_point

0 1 
 c
 c   1 cc2     
 c    2 cc3         1 ccc3      
 c    3 cc4         2 ccc4          1 dih4   
 c    4 cc5         3 ccc5          2 dih5   
 c    5 cc6         4 ccc6          3 dih6   
 c    3 cc7         2 ccc7          1 dih7   
 c    7 cc8         3 ccc8          2 dih8   
 c    8 cc9         7 ccc9          3 dih9   
 c    9 cc10        8 ccc10         7 dih10  
 c   10 cc11        9 ccc11         8 dih11  
 c   11 cc12       10 ccc12         9 dih12  
 c   12 cc13       11 ccc13        10 dih13  
 c   13 cc14       12 ccc14        11 dih14  
 h    7 hc15        8 hcc15         9 dih15  
 h    7 hc16        8 hcc16         9 dih16  
 h    8 hc17        7 hcc17         3 dih17  
 h    8 hc18        7 hcc18         3 dih18  
 h   10 hc19        9 hcc19         8 dih19  
 h   14 hc20        9 hcc20         8 dih20  
 h   11 hc21       10 hcc21         9 dih21  
 h   12 hc22       11 hcc22        10 dih22  
 h   13 hc23       14 hcc23         9 dih23  
 h    2 hc24        3 hcc24         7 dih24  
 h    4 hc25        3 hcc25         7 dih25  
 h    5 hc26        4 hcc26         3 dih26  
 h    6 hc27        5 hcc27         4 dih27  
 h    1 hc28        2 hcc28         3 dih28  
 
cc2         1.397835
cc3         1.402260
ccc3        120.972
cc4         1.403880
ccc4        118.203
dih4         -0.098
cc5         1.396690
ccc5        121.084
dih5          0.185
cc6         1.398198
ccc6        120.075
dih6         -0.112
cc7         1.514063
ccc7        121.337
dih7        179.164
cc8         1.555299
ccc8        114.415
dih8        -97.403
cc9         1.514064
ccc9        114.415
dih9         67.435
cc10        1.402258
ccc10       121.337
dih10       -97.410
cc11        1.397837
ccc11       120.972
dih11       179.165
cc12        1.396995
ccc12       120.200
dih12        -0.064
cc13        1.398201
ccc13       119.467
dih13         0.140
cc14        1.396688
ccc14       120.075
dih14        -0.053
hc15        1.097109
hcc15       107.713
dih15      -170.952
hc16        1.096153
hcc16       108.790
dih16       -55.613
hc17        1.097109
hcc17       107.713
dih17      -170.952
hc18        1.096152
hcc18       108.790
dih18       -55.613
hc19        1.086823
hcc19       119.363
dih19        -0.730
hc20        1.088038
hcc20       119.394
dih20         1.369
hc21        1.086512
hcc21       119.708
dih21       179.887
hc22        1.086240
hcc22       120.282
dih22       179.807
hc23        1.086599
hcc23       119.824
dih23      -179.646
hc24        1.086823
hcc24       119.364
dih24        -0.731
hc25        1.088038
hcc25       119.394
dih25         1.370
hc26        1.086600
hcc26       119.824
dih26      -179.646
hc27        1.086241
hcc27       120.251
dih27      -179.721
hc28        1.086513
hcc28       119.708
dih28       179.887
 
 
 

