$RunGaus
%mem=8000Mb
%nproc=4
# mp2/cc-pVTZ

DiPhEt_a_single_point

0 1 
 c
 c   1 cc2     
 c    2 cc3         1 ccc3      
 c    3 cc4         2 ccc4          1 dih4   
 c    4 cc5         3 ccc5          2 dih5   
 c    5 cc6         4 ccc6          3 dih6   
 c    3 cc7         2 ccc7          1 dih7   
 c    7 cc8         3 ccc8          2 dih8   
 c    8 cc9         7 ccc9          3 dih9   
 c    9 cc10        8 ccc10         7 dih10  
 c   10 cc11        9 ccc11         8 dih11  
 c   11 cc12       10 ccc12         9 dih12  
 c   12 cc13       11 ccc13        10 dih13  
 c   13 cc14       12 ccc14        11 dih14  
 h    7 hc15        8 hcc15         9 dih15  
 h    7 hc16        8 hcc16         9 dih16  
 h    8 hc17        7 hcc17         3 dih17  
 h    8 hc18        7 hcc18         3 dih18  
 h   10 hc19        9 hcc19         8 dih19  
 h   14 hc20        9 hcc20         8 dih20  
 h   11 hc21       10 hcc21         9 dih21  
 h   12 hc22       11 hcc22        10 dih22  
 h   13 hc23       14 hcc23         9 dih23  
 h    2 hc24        3 hcc24         7 dih24  
 h    4 hc25        3 hcc25         7 dih25  
 h    5 hc26        4 hcc26         3 dih26  
 h    6 hc27        5 hcc27         4 dih27  
 h    1 hc28        2 hcc28         3 dih28  
 
cc2         1.397289
cc3         1.403024
ccc3        121.035
cc4         1.403042
ccc4        118.198
dih4         -0.151
cc5         1.397267
ccc5        121.035
dih5          0.151
cc6         1.397631
ccc6        120.130
dih6         -0.033
cc7         1.513619
ccc7        120.894
dih7        178.338
cc8         1.551166
ccc8        112.876
dih8        -89.288
cc9         1.513621
ccc9        112.877
dih9        179.999
cc10        1.403016
ccc10       120.893
dih10       -89.177
cc11        1.397295
ccc11       121.034
dih11       178.338
cc12        1.397609
ccc12       120.130
dih12         0.032
cc13        1.397642
ccc13       119.472
dih13         0.089
cc14        1.397260
ccc14       120.130
dih14        -0.089
hc15        1.096476
hcc15       108.762
dih15       -57.835
hc16        1.096473
hcc16       108.762
dih16        57.835
hc17        1.096478
hcc17       108.763
dih17       -57.837
hc18        1.096473
hcc18       108.761
dih18        57.832
hc19        1.087781
hcc19       119.391
dih19        -2.068
hc20        1.087781
hcc20       119.387
dih20         2.068
hc21        1.086534
hcc21       119.778
dih21       179.716
hc22        1.086161
hcc22       120.265
dih22       179.806
hc23        1.086534
hcc23       119.781
dih23      -179.716
hc24        1.087782
hcc24       119.389
dih24        -2.066
hc25        1.087782
hcc25       119.388
dih25         2.067
hc26        1.086534
hcc26       119.780
dih26      -179.715
hc27        1.086162
hcc27       120.263
dih27      -179.806
hc28        1.086533
hcc28       119.779
dih28       179.716
 
 
 

