$RunGaus
%mem=8000Mb
%nproc=4
# mp2/cc-pVTZ

Et4C_T1_single_point

0 1 
 c
 c   1 cc2     
 c    2 cc3         1 ccc3      
 c    3 cc4         2 ccc4          1 dih4   
 c    4 cc5         3 ccc5          2 dih5   
 c    3 cc6         2 ccc6          1 dih6   
 c    6 cc7         3 ccc7          2 dih7   
 c    3 cc8         2 ccc8          1 dih8   
 c    8 cc9         3 ccc9          2 dih9   
 h    1 hc10        2 hcc10         3 dih10  
 h    1 hc11        2 hcc11         3 dih11  
 h    1 hc12        2 hcc12         3 dih12  
 h    7 hc13        6 hcc13         3 dih13  
 h    7 hc14        6 hcc14         3 dih14  
 h    7 hc15        6 hcc15         3 dih15  
 h    9 hc16        8 hcc16         3 dih16  
 h    9 hc17        8 hcc17         3 dih17  
 h    9 hc18        8 hcc18         3 dih18  
 h    2 hc19        3 hcc19         6 dih19  
 h    2 hc20        3 hcc20         6 dih20  
 h    6 hc21        3 hcc21         2 dih21  
 h    4 hc22        3 hcc22         2 dih22  
 h    4 hc23        3 hcc23         2 dih23  
 h    5 hc24        4 hcc24         3 dih24  
 h    5 hc25        4 hcc25         3 dih25  
 h    5 hc26        4 hcc26         3 dih26  
 h    6 hc27        3 hcc27         2 dih27  
 h    8 hc28        3 hcc28         2 dih28  
 h    8 hc29        3 hcc29         2 dih29  
 
cc2         1.535208
cc3         1.555919
ccc3        117.215
cc4         1.555935
ccc4        106.564
dih4        179.774
cc5         1.535203
ccc5        117.215
dih5        179.281
cc6         1.555923
ccc6        110.943
dih6         58.900
cc7         1.535208
ccc7        117.214
dih7         59.554
cc8         1.555939
ccc8        110.943
dih8        -59.350
cc9         1.535199
ccc9        117.216
dih9        -58.570
hc10        1.095639
hcc10       110.128
dih10      -179.880
hc11        1.095120
hcc11       112.181
dih11       -60.519
hc12        1.095352
hcc12       112.153
dih12        60.732
hc13        1.095638
hcc13       110.128
dih13       179.842
hc14        1.095354
hcc14       112.152
dih14       -60.769
hc15        1.095117
hcc15       112.180
dih15        60.481
hc16        1.095640
hcc16       110.128
dih16       179.873
hc17        1.095352
hcc17       112.153
dih17       -60.739
hc18        1.095119
hcc18       112.180
dih18        60.513
hc19        1.097352
hcc19       108.306
dih19      -177.811
hc20        1.097497
hcc20       108.242
dih20       -64.374
hc21        1.097493
hcc21       108.242
dih21      -177.171
hc22        1.097351
hcc22       108.307
dih22       -57.428
hc23        1.097494
hcc23       108.241
dih23        56.007
hc24        1.095639
hcc24       110.128
dih24      -179.802
hc25        1.095120
hcc25       112.180
dih25       -60.442
hc26        1.095354
hcc26       112.153
dih26        60.809
hc27        1.097350
hcc27       108.307
dih27       -63.734
hc28        1.097349
hcc28       108.307
dih28       178.139
hc29        1.097494
hcc29       108.240
dih29        64.703
 
 
 

