$RunGaus
%mem=8000Mb
%nproc=4
# mp2/cc-pVTZ

Et4C_T3_single_point

0 1 
 c
 c   1 cc2     
 c    2 cc3         1 ccc3      
 c    3 cc4         2 ccc4          1 dih4   
 c    4 cc5         3 ccc5          2 dih5   
 c    3 cc6         2 ccc6          1 dih6   
 c    6 cc7         3 ccc7          2 dih7   
 c    3 cc8         2 ccc8          1 dih8   
 c    8 cc9         3 ccc9          2 dih9   
 h    1 hc10        2 hcc10         3 dih10  
 h    1 hc11        2 hcc11         3 dih11  
 h    1 hc12        2 hcc12         3 dih12  
 h    7 hc13        6 hcc13         3 dih13  
 h    7 hc14        6 hcc14         3 dih14  
 h    7 hc15        6 hcc15         3 dih15  
 h    9 hc16        8 hcc16         3 dih16  
 h    9 hc17        8 hcc17         3 dih17  
 h    9 hc18        8 hcc18         3 dih18  
 h    2 hc19        3 hcc19         6 dih19  
 h    2 hc20        3 hcc20         6 dih20  
 h    6 hc21        3 hcc21         2 dih21  
 h    4 hc22        3 hcc22         2 dih22  
 h    4 hc23        3 hcc23         2 dih23  
 h    5 hc24        4 hcc24         3 dih24  
 h    5 hc25        4 hcc25         3 dih25  
 h    5 hc26        4 hcc26         3 dih26  
 h    6 hc27        3 hcc27         2 dih27  
 h    8 hc28        3 hcc28         2 dih28  
 h    8 hc29        3 hcc29         2 dih29  
 
cc2         1.536565
cc3         1.557247
ccc3        117.319
cc4         1.557245
ccc4        108.766
dih4        175.391
cc5         1.536564
ccc5        117.319
dih5         63.650
cc6         1.557244
ccc6        110.894
dih6         55.830
cc7         1.536567
ccc7        117.320
dih7         55.861
cc8         1.557241
ccc8        108.764
dih8        -63.730
cc9         1.536570
ccc9        117.320
dih9       -175.404
hc10        1.095712
hcc10       109.972
dih10       179.375
hc11        1.095018
hcc11       112.262
dih11       -61.281
hc12        1.094589
hcc12       112.258
dih12        60.187
hc13        1.095711
hcc13       109.972
dih13       179.397
hc14        1.095018
hcc14       112.262
dih14       -61.260
hc15        1.094590
hcc15       112.259
dih15        60.208
hc16        1.095710
hcc16       109.972
dih16      -179.335
hc17        1.094588
hcc17       112.259
dih17       -60.145
hc18        1.095020
hcc18       112.261
dih18        61.323
hc19        1.096710
hcc19       108.290
dih19       178.443
hc20        1.097887
hcc20       108.495
dih20       -67.435
hc21        1.096712
hcc21       108.290
dih21       178.473
hc22        1.097886
hcc22       108.494
dih22      -173.087
hc23        1.096710
hcc23       108.290
dih23       -58.964
hc24        1.095713
hcc24       109.973
dih24      -179.405
hc25        1.094590
hcc25       112.259
dih25       -60.215
hc26        1.095020
hcc26       112.261
dih26        61.252
hc27        1.097887
hcc27       108.495
dih27       -67.403
hc28        1.096712
hcc28       108.290
dih28        61.981
hc29        1.097885
hcc29       108.494
dih29       -52.141
 
 
 

