# opt dreiding

1-butene-skew

0 1
 C                 -0.26628125   -0.74315625   -0.23934375
 C                 -0.27028125    0.76484375   -0.26734375
 C                 -0.81528125    1.52984375    0.68865625
 C                  1.16571875   -1.28915625   -0.18634375
 H                  0.21371875    1.25084375   -1.13234375
 H                 -0.78828125    2.62984375    0.61965625
 H                 -1.30528125    1.08684375    1.56965625
 H                  1.16771875   -2.40415625   -0.16634375
 H                  1.75571875   -0.96715625   -1.07534375
 H                  1.69571875   -0.93215625    0.72665625
 H                 -0.83928125   -1.12215625    0.63965625
 H                 -0.78328125   -1.11615625   -1.15534375

 1 2 1.0 4 1.0 11 1.0 12 1.0
 2 3 2.0 5 1.0
 3 6 1.0 7 1.0
 4 8 1.0 9 1.0 10 1.0
 5
 6
 7
 8
 9
 10
 11
 12

