# opt dreiding

1-butene-cis

0 1
 C                 -0.62625000   -0.73846875    0.00965625
 C                 -0.68425000    0.76953125    0.00065625
 C                  0.36775000    1.60053125   -0.01334375
 C                  0.77675000   -1.35746875    0.00265625
 H                 -1.69525000    1.21453125    0.00665625
 H                  0.22075000    2.69353125   -0.01934375
 H                  1.40675000    1.23953125   -0.02034375
 H                  0.71575000   -2.47046875    0.01065625
 H                  1.34675000   -1.06646875   -0.90934375
 H                  1.36175000   -1.05446875    0.90165625
 H                 -1.17325000   -1.09446875    0.91465625
 H                 -1.18725000   -1.10646875   -0.88234375

 1 2 1.0 4 1.0 11 1.0 12 1.0
 2 3 2.0 5 1.0
 3 6 1.0 7 1.0
 4 8 1.0 9 1.0 10 1.0
 5
 6
 7
 8
 9
 10
 11
 12

