# opt dreiding

2,3-dimethylbutane-anti

0 1
 C                  0.78060000   -1.80800000    0.00100000
 C                  0.72660000   -0.26900000    0.02000000
 C                 -0.72640000    0.26900000   -0.02000000
 C                 -0.78040000    1.80800000   -0.00100000
 C                  1.50260000    0.23400000    1.25200000
 C                 -1.50240000   -0.23400000   -1.25200000
 H                  1.82660000   -2.17900000    0.09500000
 H                  0.19160000   -2.24000000    0.84300000
 H                  0.39060000   -2.23300000   -0.95100000
 H                  1.25860000    0.10100000   -0.89100000
 H                 -1.25940000   -0.10100000    0.89100000
 H                 -1.82740000    2.17900000   -0.09500000
 H                 -0.39140000    2.23300000    0.95100000
 H                 -0.19240000    2.24000000   -0.84300000
 H                  1.65260000    1.33700000    1.23500000
 H                  0.97260000   -0.03200000    2.19500000
 H                  2.52260000   -0.21200000    1.30000000
 H                 -2.52240000    0.21200000   -1.30000000
 H                 -0.97240000    0.03200000   -2.19500000
 H                 -1.65340000   -1.33700000   -1.23500000

 1 2 1.0 7 1.0 8 1.0 9 1.0
 2 3 1.0 5 1.0 10 1.0
 3 4 1.0 6 1.0 11 1.0
 4 12 1.0 13 1.0 14 1.0
 5 15 1.0 16 1.0 17 1.0
 6 18 1.0 19 1.0 20 1.0
 7
 8
 9
 10
 11
 12
 13
 14
 15
 16
 17
 18
 19
 20

