# opt dreiding

butane-t

0 1
 C                  0.00270588   -0.76800000    0.01338235
 C                 -0.00329412    0.76800000   -0.01361765
 H                  1.05670588   -1.13700000    0.02538235
 H                 -0.48529412   -1.12700000    0.95138235
 C                 -0.72729412   -1.36300000   -1.19761765
 H                  0.48570588    1.12700000   -0.95061765
 H                 -1.05629412    1.13700000   -0.02561765
 C                  0.72770588    1.36300000    1.19738235
 H                 -0.71529412   -2.47700000   -1.16361765
 H                 -1.79329412   -1.03700000   -1.22361765
 H                 -0.24729412   -1.04700000   -2.15161765
 H                  0.71570588    2.47700000    1.16438235
 H                  0.24770588    1.04700000    2.15238235
 H                  1.79270588    1.03700000    1.22438235

 1 2 1.0 3 1.0 4 1.0 5 1.0
 2 6 1.0 7 1.0 8 1.0
 3
 4
 5 9 1.0 10 1.0 11 1.0
 6
 7
 8 12 1.0 13 1.0 14 1.0
 9
 10
 11
 12
 13
 14

