#p Opt=(Modredun,nomicro) dreiding

cyclooctane-tcc

0 1
 C                 -1.35637500   -0.84654688    0.63370313
 C                 -1.05537500    0.53345312    1.24870313
 C                 -1.54437500   -0.84954688   -0.89129687
 C                  0.36362500    0.69545313    1.81270312
 C                 -0.25037500   -0.95554688   -1.71029688
 C                  0.72862500    0.21545312   -1.54329688
 C                  1.43062500    1.10945312    0.78870313
 C                  1.68362500    0.09845312   -0.33929687
 H                 -2.31537500   -1.21054688    1.07770312
 H                 -0.59637500   -1.60654688    0.92870313
 H                 -1.76137500    0.67945312    2.10270313
 H                 -1.28637500    1.36145312    0.53970313
 H                 -2.13137500    0.04445312   -1.20829688
 H                 -2.17337500   -1.73354688   -1.16129687
 H                  0.33762500    1.49445312    2.59470313
 H                  0.67662500   -0.23454688    2.34370313
 H                 -0.55037500   -1.00654687   -2.78529687
 H                  0.26462500   -1.92154688   -1.49629688
 H                  1.35762500    0.24645312   -2.46629687
 H                  0.17562500    1.18245312   -1.53929688
 H                  1.18962500    2.11045313    0.36170313
 H                  2.38662500    1.24545313    1.35370313
 H                  2.71962500    0.28345312   -0.71429687
 H                  1.70662500   -0.93854688    0.07070313

1 2 7 8 17.0 F
