# opt dreiding

tetraBn-ethene-C1-C2-syn

0 1
 C                 -0.61607692   -0.23627404    0.14714423
 C                  0.61592308    0.23572596   -0.14685577
 C                  0.91892308    1.71672596   -0.28385577
 C                  0.84792308    2.43872596    1.04214423
 C                  1.80892308   -0.66827404   -0.39185577
 C                  1.98192308   -1.11027404   -1.82885577
 C                 -0.91807692   -1.71727404    0.28414423
 C                 -0.84707692   -2.43827404   -1.04185577
 C                 -1.80907692    0.66772596    0.39214423
 C                 -1.98207692    1.11072596    1.82914423
 C                  1.54992308    1.96072596    2.15414423
 C                  0.08692308    3.60472596    1.18814423
 C                  0.00792308    4.26272596    2.41714423
 C                  1.47592308    2.61372596    3.38614423
 C                  0.69992308    3.76472596    3.52114423
 C                  2.82192308   -2.19427404   -2.11585577
 C                  1.33492308   -0.48127404   -2.89885577
 C                  1.50492308   -0.93027404   -4.21085577
 C                  2.99892308   -2.64927404   -3.42385577
 C                  2.33492308   -2.01927404   -4.47685577
 C                 -0.08607692   -3.60427404   -1.18785577
 C                 -1.55107692   -1.96127404   -2.15385577
 C                 -1.47707692   -2.61427404   -3.38585577
 C                 -0.00807692   -4.26227404   -2.41685577
 C                 -0.70007692   -3.76527404   -3.52185577
 C                 -1.33507692    0.48072596    2.89914423
 C                 -2.82107692    2.19472596    2.11614423
 C                 -2.99807692    2.65072596    3.42314423
 C                 -1.50607692    0.92972596    4.21014423
 C                 -2.33507692    2.01972596    4.47614423
 H                  1.93592308    1.88272596   -0.70585577
 H                  0.23092308    2.16872596   -1.03385577
 H                  2.74792308   -0.17127404   -0.05685577
 H                  1.73292308   -1.57327404    0.24914423
 H                 -0.23007692   -2.16927404    1.03314423
 H                 -1.93507692   -1.88327404    0.70614423
 H                 -1.73207692    1.57372596   -0.24885577
 H                 -2.74707692    0.17072596    0.05614423
 H                  2.16492308    1.04972596    2.06914423
 H                 -0.47407692    4.00872596    0.32914423
 H                 -0.61007692    5.17072596    2.51714423
 H                  2.02392308    2.21472596    4.25614423
 H                  0.62992308    4.27672596    4.49614423
 H                  3.34892308   -2.70927404   -1.29585577
 H                  0.66392308    0.37472596   -2.72785577
 H                  0.97392308   -0.42927404   -5.03785577
 H                  3.65492308   -3.51327404   -3.62385577
 H                  2.46292308   -2.38127404   -5.51085577
 H                  0.47492308   -4.00827404   -0.32985577
 H                 -2.16507692   -1.05027404   -2.06885577
 H                 -2.02607692   -2.21427404   -4.25585577
 H                  0.61092308   -5.17027404   -2.51785577
 H                 -0.63007692   -4.27627404   -4.49585577
 H                 -0.66507692   -0.37527404    2.72914423
 H                 -3.34707692    2.70972596    1.29514423
 H                 -3.65407692    3.51472596    3.62314423
 H                 -0.97607692    0.42872596    5.03814423
 H                 -2.46307692    2.38172596    5.51014423

 1 2 2.0 7 1.0 9 1.0
 2 3 1.0 5 1.0
 3 4 1.0 31 1.0 32 1.0
 4 11 1.5 12 1.5
 5 6 1.0 33 1.0 34 1.0
 6 16 1.5 17 1.5
 7 8 1.0 35 1.0 36 1.0
 8 21 1.5 22 1.5
 9 10 1.0 37 1.0 38 1.0
 10 26 1.5 27 1.5
 11 14 1.5 39 1.0
 12 13 1.5 40 1.0
 13 15 1.5 41 1.0
 14 15 1.5 42 1.0
 15 43 1.0
 16 19 1.5 44 1.0
 17 18 1.5 45 1.0
 18 20 1.5 46 1.0
 19 20 1.5 47 1.0
 20 48 1.0
 21 24 1.5 49 1.0
 22 23 1.5 50 1.0
 23 25 1.5 51 1.0
 24 25 1.5 52 1.0
 25 53 1.0
 26 29 1.5 54 1.0
 27 28 1.5 55 1.0
 28 30 1.5 56 1.0
 29 30 1.5 57 1.0
 30 58 1.0
 31
 32
 33
 34
 35
 36
 37
 38
 39
 40
 41
 42
 43
 44
 45
 46
 47
 48
 49
 50
 51
 52
 53
 54
 55
 56
 57
 58

