# opt dreiding

tetraBn-ethene-C1,C2-syn-f

0 1
 C                 -1.18091346   -0.53706250    0.36775000
 C                  0.00208654    0.00093750   -0.00125000
 C                  0.27508654    1.49393750   -0.00825000
 C                  0.54708654    1.97793750   -1.41425000
 C                  1.19308654   -0.82806250   -0.44825000
 C                  2.34608654   -0.66406250    0.51375000
 C                 -1.44391346   -2.03006250    0.33975000
 C                 -1.59291346   -2.54106250   -1.07525000
 C                 -2.34891346    0.30593750    0.84175000
 C                 -2.10691346    0.86093750    2.22775000
 C                 -0.42291346    1.82593750   -2.41125000
 C                  1.76708654    2.57293750   -1.75325000
 C                  2.01408654    3.00493750   -3.05725000
 C                 -0.18191346    2.25493750   -3.71825000
 C                  1.04008654    2.84593750   -4.04325000
 C                  3.57508654   -0.14406250    0.09075000
 C                  2.19908654   -1.02306250    1.85775000
 C                  3.25108654   -0.86506250    2.76175000
 C                  4.63108654    0.01593750    0.98975000
 C                  4.47008654   -0.34406250    2.32875000
 C                 -0.95391346   -3.71806250   -1.48525000
 C                 -2.38291346   -1.85706250   -2.00725000
 C                 -2.51491346   -2.32106250   -3.31725000
 C                 -1.08291346   -4.18906250   -2.79325000
 C                 -1.86091346   -3.48806250   -3.71425000
 C                 -1.60491346    0.04693750    3.24975000
 C                 -2.39291346    2.19793750    2.52575000
 C                 -2.16391346    2.71593750    3.80175000
 C                 -1.37091346    0.55793750    4.52775000
 C                 -1.64791346    1.89693750    4.80575000
 H                 -0.56191346    2.10493750    0.39075000
 H                  1.13308654    1.70593750    0.66775000
 H                  0.98108654   -1.91606250   -0.52225000
 H                  1.47708654   -0.52106250   -1.48025000
 H                 -0.62791346   -2.55706250    0.88375000
 H                 -2.36691346   -2.29906250    0.90175000
 H                 -2.54091346    1.11593750    0.10175000
 H                 -3.29791346   -0.27606250    0.86475000
 H                 -1.39091346    1.35593750   -2.16925000
 H                  2.55008654    2.70193750   -0.98825000
 H                  2.98208654    3.46893750   -3.31025000
 H                 -0.95491346    2.12293750   -4.49325000
 H                  1.23408654    3.18293750   -5.07525000
 H                  3.71808654    0.14993750   -0.96125000
 H                  1.24008654   -1.43206250    2.21575000
 H                  3.11708654   -1.14906250    3.81975000
 H                  5.59208654    0.43093750    0.64275000
 H                  5.30308654   -0.21506250    3.04075000
 H                 -0.33491346   -4.28506250   -0.77125000
 H                 -2.91391346   -0.93706250   -1.71425000
 H                 -3.13691346   -1.76506250   -4.03925000
 H                 -0.56791346   -5.11506250   -3.09925000
 H                 -1.96391346   -3.85706250   -4.74925000
 H                 -1.38491346   -1.01506250    3.05475000
 H                 -2.80091346    2.86093750    1.74475000
 H                 -2.38991346    3.77493750    4.01575000
 H                 -0.96791346   -0.09706250    5.31875000
 H                 -1.46491346    2.30393750    5.81475000

 1 2 2.0 7 1.0 9 1.0
 2 3 1.0 5 1.0
 3 4 1.0 31 1.0 32 1.0
 4 11 1.5 12 1.5
 5 6 1.0 33 1.0 34 1.0
 6 16 1.5 17 1.5
 7 8 1.0 35 1.0 36 1.0
 8 21 1.5 22 1.5
 9 10 1.0 37 1.0 38 1.0
 10 26 1.5 27 1.5
 11 14 1.5 39 1.0
 12 13 1.5 40 1.0
 13 15 1.5 41 1.0
 14 15 1.5 42 1.0
 15 43 1.0
 16 19 1.5 44 1.0
 17 18 1.5 45 1.0
 18 20 1.5 46 1.0
 19 20 1.5 47 1.0
 20 48 1.0
 21 24 1.5 49 1.0
 22 23 1.5 50 1.0
 23 25 1.5 51 1.0
 24 25 1.5 52 1.0
 25 53 1.0
 26 29 1.5 54 1.0
 27 28 1.5 55 1.0
 28 30 1.5 56 1.0
 29 30 1.5 57 1.0
 30 58 1.0
 31
 32
 33
 34
 35
 36
 37
 38
 39
 40
 41
 42
 43
 44
 45
 46
 47
 48
 49
 50
 51
 52
 53
 54
 55
 56
 57
 58

