# opt dreiding

TMH-g

0 1
 C                 -0.80634146   -2.88263415    1.13126829
 C                 -0.82334146   -1.36763415    0.86726829
 C                  0.22265854   -0.79763415   -0.13573171
 C                  0.27765854    0.78736585   -0.07873171
 C                 -1.15034146    1.40536585   -0.01873171
 C                 -1.28034146    2.92336585   -0.23373171
 C                  1.60165854   -1.42463415    0.18626829
 C                 -0.15734146   -1.28863415   -1.55673171
 C                  1.06265854    1.27136585    1.16726829
 C                  1.01265854    1.37436585   -1.31073171
 H                 -1.63734146   -3.16863415    1.81726829
 H                 -0.94234146   -3.47863415    0.20126829
 H                  0.13365854   -3.21463415    1.62626829
 H                 -1.85034146   -1.11463415    0.51526829
 H                 -0.69134146   -0.87763415    1.85926829
 H                 -1.79434146    0.92536585   -0.79073171
 H                 -1.61034146    1.18136585    0.97126829
 H                 -2.34034146    3.24636585   -0.10773171
 H                 -0.68034146    3.51036585    0.49626829
 H                 -0.98134146    3.23136585   -1.26173171
 H                  2.42465854   -0.97863415   -0.41373171
 H                  1.86665854   -1.32163415    1.26226829
 H                  1.62765854   -2.51363415   -0.04273171
 H                  0.61965854   -1.03763415   -2.31273171
 H                 -0.26034146   -2.39463415   -1.60573171
 H                 -1.12534146   -0.86663415   -1.90873171
 H                  1.06365854    2.37936585    1.26026829
 H                  0.63865854    0.87636585    2.11726829
 H                  2.13765854    0.98436585    1.12726829
 H                  1.23265854    2.45836585   -1.18673171
 H                  1.99965854    0.89236585   -1.48773171
 H                  0.41165854    1.27736585   -2.24173171

 1 2 1.0 11 1.0 12 1.0 13 1.0
 2 3 1.0 14 1.0 15 1.0
 3 4 1.0 7 1.0 8 1.0
 4 5 1.0 9 1.0 10 1.0
 5 6 1.0 16 1.0 17 1.0
 6 18 1.0 19 1.0 20 1.0
 7 21 1.0 22 1.0 23 1.0
 8 24 1.0 25 1.0 26 1.0
 9 27 1.0 28 1.0 29 1.0
 10 30 1.0 31 1.0 32 1.0
 11
 12
 13
 14
 15
 16
 17
 18
 19
 20
 21
 22
 23
 24
 25
 26
 27
 28
 29
 30
 31
 32

