# opt dreiding

trineopentylbenzene-trbr-allsyn

0 1
 C                 -0.98230682   -1.05473106   -0.51754167
 C                 -1.30630682    0.29026894   -0.79154167
 C                 -0.23630682    1.20126894   -0.92054167
 C                  0.34169318   -1.48773106   -0.29554167
 C                  1.36869318   -0.53073106   -0.43754167
 C                  1.10769318    0.82926894   -0.70954167
 C                  2.24269318    1.86226894   -0.77554167
 C                  2.62769318    2.58826894    0.54745833
 C                  3.78469318    3.56926894    0.24445833
 C                  1.46269318    3.40326894    1.14445833
 C                  3.10869318    1.61726894    1.64545833
 C                 -2.76630682    0.74626894   -0.94454167
 C                 -3.50730682    1.22026894    0.33945833
 C                 -4.94730682    1.62626894   -0.05254167
 C                 -3.60330682    0.12126894    1.41645833
 C                 -2.83730682    2.44226894    1.00045833
 C                  0.65369318   -2.94373106    0.08345833
 C                  0.68169318   -3.29873106    1.59945833
 C                  1.00869318   -4.80373106    1.74045833
 C                  1.75169318   -2.50873106    2.38045833
 C                 -0.66830682   -3.04373106    2.29945833
 Br                 3.19469318   -1.12373106   -0.37754167
 Br                -2.38430682   -2.36773106   -0.56654167
 Br                -0.61430682    2.98526894   -1.52354167
 H                  3.15969318    1.41126894   -1.20954167
 H                  2.03069318    2.63026894   -1.54954167
 H                  4.10469318    4.12126894    1.15845833
 H                  4.67969318    3.03526894   -0.14954167
 H                  3.48669318    4.32926894   -0.51354167
 H                  1.75869318    3.90526894    2.09345833
 H                  1.13669318    4.21526894    0.45745833
 H                  0.59169318    2.75326894    1.38345833
 H                  3.36769318    2.15726894    2.58445833
 H                  2.32069318    0.87726894    1.90845833
 H                  4.03169318    1.07726894    1.33945833
 H                 -2.85030682    1.54226894   -1.71454167
 H                 -3.37530682   -0.04573106   -1.43054167
 H                 -5.53030682    1.97626894    0.83045833
 H                 -4.94930682    2.45226894   -0.79854167
 H                 -5.50530682    0.77026894   -0.49754167
 H                 -4.12730682    0.48626894    2.32845833
 H                 -4.18830682   -0.75373106    1.05745833
 H                 -2.59530682   -0.21973106    1.74145833
 H                 -3.37830682    2.75726894    1.92145833
 H                 -1.79030682    2.21826894    1.30445833
 H                 -2.84130682    3.32726894    0.32645833
 H                 -0.04330682   -3.64073106   -0.42854167
 H                  1.61169318   -3.27173106   -0.37254167
 H                  1.04369318   -5.11873106    2.80845833
 H                  0.24469318   -5.43673106    1.23345833
 H                  1.99869318   -5.04873106    1.29145833
 H                  1.74569318   -2.77173106    3.46245833
 H                  2.77669318   -2.73673106    2.01445833
 H                  1.57469318   -1.41173106    2.31645833
 H                 -0.62130682   -3.29373106    3.38345833
 H                 -0.96730682   -1.97373106    2.23145833
 H                 -1.47730682   -3.67673106    1.87445833

 1 2 1.5 4 1.5 23 1.0
 2 3 1.5 12 1.0
 3 6 1.5 24 1.0
 4 5 1.5 17 1.0
 5 6 1.5 22 1.0
 6 7 1.0
 7 8 1.0 25 1.0 26 1.0
 8 9 1.0 10 1.0 11 1.0
 9 27 1.0 28 1.0 29 1.0
 10 30 1.0 31 1.0 32 1.0
 11 33 1.0 34 1.0 35 1.0
 12 13 1.0 36 1.0 37 1.0
 13 14 1.0 15 1.0 16 1.0
 14 38 1.0 39 1.0 40 1.0
 15 41 1.0 42 1.0 43 1.0
 16 44 1.0 45 1.0 46 1.0
 17 18 1.0 47 1.0 48 1.0
 18 19 1.0 20 1.0 21 1.0
 19 49 1.0 50 1.0 51 1.0
 20 52 1.0 53 1.0 54 1.0
 21 55 1.0 56 1.0 57 1.0
 22
 23
 24
 25
 26
 27
 28
 29
 30
 31
 32
 33
 34
 35
 36
 37
 38
 39
 40
 41
 42
 43
 44
 45
 46
 47
 48
 49
 50
 51
 52
 53
 54
 55
 56
 57

