# opt uff

2-me-histamine-g-

1 1
 C                  0.11423188   -1.41392754   -0.25511594
 C                  0.59923188   -0.17392754   -0.12111594
 N                 -0.90076812   -1.35392754   -1.12011594
 C                 -0.99476812   -0.06992754   -1.48511594
 N                 -0.07376812    0.71507246   -0.88711594
 C                  1.74923188    0.21907246    0.76288406
 C                  1.38023188    0.14807246    2.24788406
 N                  0.26223188    1.12107246    2.45988406
 H                  0.41923188   -2.36292754    0.21488406
 H                  2.60523188   -0.46592754    0.55688406
 H                  2.08823188    1.24907246    0.49988406
 H                  1.03623188   -0.87092754    2.54288406
 H                  2.23823188    0.44507246    2.89388406
 H                 -0.04576812    1.15107246    3.45588406
 H                  0.53523188    2.09207246    2.19888406
 H                 -0.57776812    0.88107246    1.89088406
 H                 -1.47676812   -2.11992754   -1.43611594
 C                 -2.01376812    0.44207246   -2.45811594
 H                 -1.92576812   -0.09792754   -3.42811594
 H                 -3.04076812    0.28507246   -2.05611594
 H                 -1.87576812    1.53007246   -2.65011594

 1 2 2.0 3 1.5 9 1.0
 2 5 1.5 6 1.0
 3 4 1.5 17 1.0
 4 5 1.5 18 1.0
 5
 6 7 1.0 10 1.0 11 1.0
 7 8 1.0 12 1.0 13 1.0
 8 14 1.0 15 1.0 16 1.0
 9
 10
 11
 12
 13
 14
 15
 16
 17
 18 19 1.0 20 1.0 21 1.0
 19
 20
 21

