# opt uff

2-me-histamine-g+

1 1
 C                 -0.90731884    0.52747826   -0.83255072
 C                 -0.12131884   -0.45352174   -0.37355072
 N                 -0.12031884    1.56947826   -1.11255072
 C                  1.12468116    1.18047826   -0.81455072
 N                  1.18068116   -0.08652174   -0.34955072
 C                 -0.58531884   -1.81452174    0.06344928
 C                 -0.67631884   -1.91752174    1.58944928
 N                 -1.70231884   -0.92052174    2.03144928
 H                 -1.99731884    0.56947826   -0.98355072
 H                 -1.57631884   -2.04152174   -0.39455072
 H                  0.13268116   -2.57552174   -0.32255072
 H                 -1.00831884   -2.93352174    1.90744928
 H                  0.29668116   -1.68052174    2.07944928
 H                 -1.84331884   -0.93652174    3.06444928
 H                 -1.43431884    0.05447826    1.77944928
 H                 -2.63331884   -1.09852174    1.59644928
 H                 -0.40731884    2.46647826   -1.47855072
 C                  2.33468116    2.04747826   -0.98855072
 H                  2.12268116    2.89347826   -1.68155072
 H                  2.64668116    2.46747826   -0.00555072
 H                  3.18068116    1.45847826   -1.40855072

 1 2 2.0 3 1.5 9 1.0
 2 5 1.5 6 1.0
 3 4 1.5 17 1.0
 4 5 1.5 18 1.0
 5
 6 7 1.0 10 1.0 11 1.0
 7 8 1.0 12 1.0 13 1.0
 8 14 1.0 15 1.0 16 1.0
 9
 10
 11
 12
 13
 14
 15
 16
 17
 18 19 1.0 20 1.0 21 1.0
 19
 20
 21

