# opt uff

3-me-histamine-g-

1 1
 C                 -0.83711594    0.48381159   -0.52072464
 C                  0.04588406   -0.51518841   -0.40472464
 N                 -0.21511594    1.59281159   -0.95072464
 C                  1.04988406    1.16381159   -1.06372464
 N                  1.29088406   -0.12118841   -0.74772464
 C                 -0.27211594   -1.91118841    0.05427536
 C                 -0.64011594   -1.95718841    1.54027536
 N                  0.55588406   -1.46518841    2.29527536
 H                 -1.92011594    0.48481159   -0.31472464
 H                 -1.12311594   -2.29818841   -0.55472464
 H                  0.59988406   -2.57818841   -0.14572464
 H                 -1.51111594   -1.30318841    1.77427536
 H                 -0.86611594   -2.99718841    1.86927536
 H                  0.39988406   -1.47718841    3.32527536
 H                  1.40088406   -2.04818841    2.11027536
 H                  0.80488406   -0.48518841    2.03827536
 C                 -0.74711594    2.90981159   -1.15072464
 H                  1.86588406    1.82481159   -1.39772464
 H                 -0.73511594    3.46681159   -0.18672464
 H                 -0.13911594    3.46881159   -1.89872464
 H                 -1.79411594    2.85381159   -1.52472464

 1 2 2.0 3 1.5 9 1.0
 2 5 1.5 6 1.0
 3 4 1.5 17 1.0
 4 5 1.5 18 1.0
 5
 6 7 1.0 10 1.0 11 1.0
 7 8 1.0 12 1.0 13 1.0
 8 14 1.0 15 1.0 16 1.0
 9
 10
 11
 12
 13
 14
 15
 16
 17 19 1.0 20 1.0 21 1.0
 18
 19
 20
 21

