# opt uff

3-me-histamine-t

1 1
 C                  1.03891304    0.32333333   -0.20266667
 C                 -0.22708696   -0.05066667   -0.42066667
 N                  1.87691304   -0.64166667   -0.61166667
 C                  1.01891304   -1.56766667   -1.06166667
 N                 -0.29308696   -1.27866667   -0.98066667
 C                 -1.44608696    0.76433333   -0.09366667
 C                 -1.71308696    0.76633333    1.41533333
 N                 -2.94508696    1.59133333    1.62633333
 H                  1.42291304    1.25733333    0.24033333
 H                 -1.29108696    1.80633333   -0.45966667
 H                 -2.32508696    0.34733333   -0.63966667
 H                 -1.90008696   -0.26366667    1.79833333
 H                 -0.87208696    1.22733333    1.98333333
 H                 -3.20808696    1.64933333    2.63333333
 H                 -2.82208696    2.56933333    1.28833333
 H                 -3.76808696    1.19933333    1.12033333
 C                  3.30591304   -0.70266667   -0.51366667
 H                  1.35791304   -2.52966667   -1.48066667
 H                  3.59591304   -1.10066667    0.48533333
 H                  3.72491304   -1.36866667   -1.30266667
 H                  3.74891304    0.31133333   -0.64266667

 1 2 2.0 3 1.5 9 1.0
 2 5 1.5 6 1.0
 3 4 1.5 17 1.0
 4 5 1.5 18 1.0
 5
 6 7 1.0 10 1.0 11 1.0
 7 8 1.0 12 1.0 13 1.0
 8 14 1.0 15 1.0 16 1.0
 9
 10
 11
 12
 13
 14
 15
 16
 17 19 1.0 20 1.0 21 1.0
 18
 19
 20
 21

