# opt uff

4-me-histamine-g-

1 1
 C                 -0.50450725    0.88753623   -0.70102899
 C                  0.18849275   -0.24346377   -0.48502899
 N                  0.37549275    1.80853623   -1.11202899
 C                  1.55549275    1.19053623   -1.11802899
 N                  1.51149275   -0.09846377   -0.73602899
 C                 -0.37950725   -1.55446377   -0.01002899
 C                 -0.75850725   -1.51546377    1.47397101
 N                  0.50149275   -1.23746377    2.23397101
 C                 -1.97350725    1.14353623   -0.55402899
 H                 -1.27250725   -1.81046377   -0.62602899
 H                  0.36649275   -2.36446377   -0.18802899
 H                 -1.49950725   -0.71446377    1.69797101
 H                 -1.16950725   -2.49546377    1.81097101
 H                  0.33949275   -1.21246377    3.26297101
 H                  1.22949275   -1.96346377    2.05997101
 H                  0.92149275   -0.32046377    1.97097101
 H                  2.49149275    1.69153623   -1.41202899
 H                  0.18449275    2.76853623   -1.36102899
 H                 -2.56450725    0.20253623   -0.49702899
 H                 -2.16350725    1.73453623    0.36997101
 H                 -2.35050725    1.72653623   -1.42502899

 1 2 2.0 3 1.5 9 1.0
 2 5 1.5 6 1.0
 3 4 1.5 18 1.0
 4 5 1.5 17 1.0
 5
 6 7 1.0 10 1.0 11 1.0
 7 8 1.0 12 1.0 13 1.0
 8 14 1.0 15 1.0 16 1.0
 9 19 1.0 20 1.0 21 1.0
 10
 11
 12
 13
 14
 15
 16
 17
 18
 19
 20
 21

