# opt uff

4-me-histamine-g+

1 1
 C                  1.07897101   -0.17801449   -0.44691304
 C                 -0.25602899   -0.09901449   -0.56191304
 N                  1.41797101   -1.44601449   -0.71091304
 C                  0.26897101   -2.06601449   -0.98291304
 N                 -0.82002899   -1.28001449   -0.91091304
 C                 -1.09202899    1.13698551   -0.35791304
 C                 -1.86002899    1.08998551    0.96808696
 N                 -0.83902899    1.04198551    2.06208696
 C                  2.05497101    0.89798551   -0.07791304
 H                 -0.45602899    2.05198551   -0.39991304
 H                 -1.81502899    1.21298551   -1.20291304
 H                 -2.48502899    2.00198551    1.10508696
 H                 -2.51002899    0.18798551    1.03808696
 H                 -1.27902899    1.02098551    3.00708696
 H                 -0.23102899    0.19798551    1.99308696
 H                 -0.20602899    1.86998551    2.04108696
 H                  0.21497101   -3.13301449   -1.24891304
 H                  2.34497101   -1.84501449   -0.71091304
 H                  1.70297101    1.46998551    0.81008696
 H                  3.04797101    0.45998551    0.17308696
 H                  2.18997101    1.60098551   -0.92991304

 1 2 2.0 3 1.5 9 1.0
 2 5 1.5 6 1.0
 3 4 1.5 18 1.0
 4 5 1.5 17 1.0
 5
 6 7 1.0 10 1.0 11 1.0
 7 8 1.0 12 1.0 13 1.0
 8 14 1.0 15 1.0 16 1.0
 9 19 1.0 20 1.0 21 1.0
 10
 11
 12
 13
 14
 15
 16
 17
 18
 19
 20
 21

