# opt uff

histamine-g-

1 1
 C                 -0.28526230   -1.26900000   -0.75277049
 C                  0.40873770   -0.19700000   -0.34777049
 N                 -0.97326230   -1.08000000   -1.89877049
 C                 -0.63626230    0.19800000   -2.15577049
 N                  0.18073770    0.75500000   -1.26077049
 C                  1.27173770   -0.05000000    0.87022951
 C                  0.45073770   -0.09300000    2.16222951
 N                 -0.49826230    1.06400000    2.10822951
 H                 -0.35326230   -2.25400000   -0.26477049
 H                 -1.00926230    0.74100000   -3.03877049
 H                  2.01873770   -0.87800000    0.87222951
 H                  1.84173770    0.90700000    0.80722951
 H                 -0.13326230   -1.03800000    2.25422951
 H                  1.10173770    0.02200000    3.06022951
 H                 -1.09226230    1.12300000    2.96222951
 H                  0.00173770    1.97500000    2.02322951
 H                 -1.14626230    1.00000000    1.29322951
 H                  0.54773770    1.69500000   -1.26677049

 1 2 2.0 3 1.5 9 1.0
 2 5 1.5 6 1.0
 3 4 1.5
 4 5 1.5 10 1.0
 5 18 1.0
 6 7 1.0 11 1.0 12 1.0
 7 8 1.0 13 1.0 14 1.0
 8 15 1.0 16 1.0 17 1.0
 9
 10
 11
 12
 13
 14
 15
 16
 17
 18

