# opt uff

histamine-g+

1 1
 C                 -0.06496721    0.88262295   -1.12777049
 C                  0.33703279   -0.17637705   -0.41577049
 N                  0.81203279    1.90962295   -1.13377049
 C                  1.78303279    1.38062295   -0.36677049
 N                  1.54003279    0.14462295    0.07522951
 C                 -0.37096721   -1.47937705   -0.19377049
 C                 -1.04396721   -1.52937705    1.18122951
 N                 -2.07096721   -0.44037705    1.20122951
 H                 -1.00596721    1.00462295   -1.68977049
 H                  2.70903279    1.92662295   -0.12377049
 H                 -1.12796721   -1.63637705   -0.99777049
 H                  0.37303279   -2.30637705   -0.27877049
 H                 -1.55796721   -2.50537705    1.34522951
 H                 -0.31396721   -1.35637705    2.00522951
 H                 -2.59496721   -0.41237705    2.10222951
 H                 -1.64496721    0.50162295    1.07122951
 H                 -2.77896721   -0.55737705    0.44422951
 H                  2.13403279   -0.42437705    0.66022951

 1 2 2.0 3 1.5 9 1.0
 2 5 1.5 6 1.0
 3 4 1.5
 4 5 1.5 10 1.0
 5 18 1.0
 6 7 1.0 11 1.0 12 1.0
 7 8 1.0 13 1.0 14 1.0
 8 15 1.0 16 1.0 17 1.0
 9
 10
 11
 12
 13
 14
 15
 16
 17
 18

