$RunGaus
%mem=8000Mb
%nproc=4
# b3lyp/6-31+g(d,p)

N_Ac_Ala_N_Me_g_plus_g__single_point

0 1 
 c
 c   1 cc2     
 n    2 nc3         1 ncc3      
 c    3 cn4         2 cnc4          1 dih4   
 c    4 cc5         3 ccn5          2 dih5   
 o    2 oc6         3 ocn6          4 dih6   
 c    4 cc7         3 ccn7          2 dih7   
 n    7 nc8         4 ncc8          3 dih8   
 c    8 cn9         7 cnc9          4 dih9   
 o    7 oc10        4 occ10         3 dih10  
 h    1 hc11        2 hcc11         6 dih11  
 h    1 hc12        2 hcc12         6 dih12  
 h    1 hc13        2 hcc13         6 dih13  
 h    4 hc14        3 hcn14         2 dih14  
 h    3 hn15        2 hnc15         1 dih15  
 h    8 hn16        7 hnc16         4 dih16  
 h    9 hc17        8 hcn17         7 dih17  
 h    9 hc18        8 hcn18         7 dih18  
 h    9 hc19        8 hcn19         7 dih19  
 h    5 hc20        4 hcc20         3 dih20  
 h    5 hc21        4 hcc21         3 dih21  
 h    5 hc22        4 hcc22         3 dih22  
 
cc2         1.516273
nc3         1.361152
ncc3        116.525
cn4         1.469023
cnc4        123.119
dih4       -177.751
cc5         1.524741
ccn5        110.216
dih5        153.086
oc6         1.236178
ocn6        121.976
dih6          1.902
cc7         1.551185
ccn7        110.289
dih7        -83.364
nc8         1.356878
ncc8        114.081
dih8         75.275
cn9         1.455073
cnc9        121.741
dih9       -175.502
oc10        1.230417
occ10       122.098
dih10      -104.813
hc11        1.093719
hcc11       108.526
dih11       -58.914
hc12        1.093428
hcc12       113.672
dih12       179.592
hc13        1.093521
hcc13       108.784
dih13        57.729
hc14        1.094869
hcn14       106.048
dih14        33.704
hn15        1.010497
hnc15       119.197
dih15         5.562
hn16        1.016783
hnc16       117.214
dih16        -9.107
hc17        1.097304
hcn17       111.948
dih17        76.598
hc18        1.091898
hcn18       109.468
dih18       -43.169
hc19        1.092077
hcn19       108.937
dih19      -162.741
hc20        1.094018
hcc20       110.973
dih20        64.104
hc21        1.094275
hcc21       110.227
dih21       -57.653
hc22        1.092530
hcc22       110.096
dih22      -177.644
 
 
 
 

