$RunGaus
%mem=8000Mb
%nproc=4
# b3lyp/6-31+g(d,p) 

N_Ac_Gly_N_Me_a_a_single_point

0 1 
 c
 c   1 cc2     
 n    2 nc3         1 ncc3      
 c    3 cn4         2 cnc4          1 dih4   
 c    4 cc5         3 ccn5          2 dih5   
 n    5 nc6         4 ncc6          3 dih6   
 c    6 cn7         5 cnc7          4 dih7   
 o    2 oc8         3 ocn8          4 dih8   
 o    5 oc9         4 occ9          3 dih9   
 h    1 hc10        2 hcc10         8 dih10  
 h    1 hc11        2 hcc11         8 dih11  
 h    1 hc12        2 hcc12         8 dih12  
 h    4 hc13        3 hcn13         2 dih13  
 h    4 hc14        3 hcn14         2 dih14  
 h    3 hn15        2 hnc15         1 dih15  
 h    6 hn16        5 hnc16         4 dih16  
 h    7 hc17        6 hcn17         5 dih17  
 h    7 hc18        6 hcn18         5 dih18  
 h    7 hc19        6 hcn19         5 dih19  
 
cc2         1.520445
nc3         1.362264
ncc3        115.370
cn4         1.442886
cnc4        121.769
dih4        179.998
cc5         1.530285
ccn5        108.832
dih5       -179.878
nc6         1.356690
ncc6        115.400
dih6        179.922
cn7         1.458134
cnc7        121.764
dih7        179.995
oc8         1.231097
ocn8        121.725
dih8         -0.039
oc9         1.230976
occ9        121.965
dih9         -0.071
hc10        1.095545
hcc10       110.929
dih10       120.096
hc11        1.095547
hcc11       110.931
dih11      -120.070
hc12        1.089976
hcc12       108.652
dih12         0.014
hc13        1.098440
hcn13       110.748
dih13       -58.804
hc14        1.098470
hcn14       110.759
dih14        59.068
hn15        1.013882
hnc15       122.579
dih15         0.040
hn16        1.009392
hnc16       119.099
dih16        -0.024
hc17        1.091247
hcn17       108.633
dih17       179.981
hc18        1.094070
hcn18       110.762
dih18       -60.037
hc19        1.094066
hcn19       110.761
dih19        59.999
 
 
 
 

