$RunGaus
%mem=8000Mb
%nproc=4
# b3lyp/6-31+g(d,p) 

N_Ac_Gly_N_Me_g_plus_g-_single_point

0 1 
 c
 c   1 cc2     
 n    2 nc3         1 ncc3      
 c    3 cn4         2 cnc4          1 dih4   
 c    4 cc5         3 ccn5          2 dih5   
 n    5 nc6         4 ncc6          3 dih6   
 c    6 cn7         5 cnc7          4 dih7   
 o    2 oc8         3 ocn8          4 dih8   
 o    5 oc9         4 occ9          3 dih9   
 h    1 hc10        2 hcc10         8 dih10  
 h    1 hc11        2 hcc11         8 dih11  
 h    1 hc12        2 hcc12         8 dih12  
 h    4 hc13        3 hcn13         2 dih13  
 h    4 hc14        3 hcn14         2 dih14  
 h    3 hn15        2 hnc15         1 dih15  
 h    6 hn16        5 hnc16         4 dih16  
 h    7 hc17        6 hcn17         5 dih17  
 h    7 hc18        6 hcn18         5 dih18  
 h    7 hc19        6 hcn19         5 dih19  
 
cc2         1.515726
nc3         1.361553
ncc3        116.588
cn4         1.461554
cnc4        122.615
dih4       -177.472
cc5         1.540761
ccn5        113.750
dih5        -82.370
nc6         1.355423
ncc6        114.773
dih6         69.708
cn7         1.455109
cnc7        121.734
dih7       -177.673
oc8         1.235488
ocn8        121.727
dih8          2.162
oc9         1.230960
occ9        121.280
dih9       -111.005
hc10        1.093758
hcc10       108.501
dih10       -59.427
hc11        1.093397
hcc11       113.671
dih11       179.139
hc12        1.093433
hcc12       108.812
dih12        57.216
hc13        1.090064
hcn13       108.535
dih13       158.562
hc14        1.094556
hcn14       108.026
dih14        40.152
hn15        1.009184
hnc15       119.183
dih15         5.606
hn16        1.016294
hnc16       117.562
dih16        -5.422
hc17        1.096655
hcn17       111.742
dih17        72.051
hc18        1.092734
hcn18       109.919
dih18       -47.789
hc19        1.091737
hcn19       108.767
dih19      -167.479
 
 
 
 

