$RunGaus
%mem=8000Mb
%nproc=4
# b3lyp/6-31+g(d,p) 

N_Me_ethylamine_g-_single_point

0 1 
 c
 c   1 cc2     
 n    2 nc3         1 ncc3      
 c    3 cn4         2 cnc4          1 dih4   
 h    2 hc5         3 hcn5          4 dih5   
 h    2 hc6         3 hcn6          4 dih6   
 h    1 hc7         2 hcc7          3 dih7   
 h    1 hc8         2 hcc8          3 dih8   
 h    3 hn9         2 hnc9          1 dih9   
 h    1 hc10        2 hcc10         3 dih10  
 h    4 hc11        3 hcn11         2 dih11  
 h    4 hc12        3 hcn12         2 dih12  
 h    4 hc13        3 hcn13         2 dih13  
 
cc2         1.530272
nc3         1.465489
ncc3        112.491
cn4         1.460520
cnc4        114.617
dih4        -75.025
hc5         1.108036
hcn5        111.852
dih5         48.232
hc6         1.096119
hcn6        107.316
dih6        165.131
hc7         1.095692
hcc7        110.341
dih7       -176.850
hc8         1.094712
hcc8        110.408
dih8        -56.741
hn9         1.015252
hnc9        109.339
dih9        161.776
hc10        1.095081
hcc10       111.868
dih10        63.665
hc11        1.094108
hcn11       109.332
dih11      -173.563
hc12        1.106416
hcn12       113.729
dih12       -52.340
hc13        1.094400
hcn13       110.202
dih13        68.730
 
 
 
 

