$RunGaus
%mem=8000Mb
%nproc=8
%RWF=/media/S/Gaussian_scratch/,140GB,/media/TOSHIBA\ EXT/,200GB,/home/scratch/stylianakis/,60GB,
%NoSave
# mp2/dgdzvp

2-SnBu3-N-Me-piperidine-eq,eq

0 1
 C              
 N                  1            B1
 C                  2            B2    1            A1
 C                  1            B3    2            A2    3            D1    0
 C                  3            B4    2            A3    1            D2    0
 C                  5            B5    3            A4    2            D3    0
 C                  2            B6    1            A5    4            D4    0
 H                  1            B7    2            A6    7            D5    0
 H                  3            B8    2            A7    1            D6    0
 H                  3            B9    2            A8    1            D7    0
 H                  4           B10    1            A9    2            D8    0
 H                  4           B11    1           A10    2            D9    0
 H                  5           B12    3           A11    2           D10    0
 H                  5           B13    3           A12    2           D11    0
 H                  6           B14    5           A13    3           D12    0
 H                  6           B15    5           A14    3           D13    0
 Sn                 1           B16    2           A15    7           D14    0
 C                 17           B17    1           A16    2           D15    0
 C                 18           B18   17           A17    1           D16    0
 C                 19           B19   18           A18   17           D17    0
 C                 20           B20   19           A19   18           D18    0
 C                 17           B21    1           A20    2           D19    0
 C                 22           B22   17           A21    1           D20    0
 C                 23           B23   22           A22   17           D21    0
 C                 24           B24   23           A23   22           D22    0
 C                 17           B25    1           A24    2           D23    0
 C                 26           B26   17           A25    1           D24    0
 C                 27           B27   26           A26   17           D25    0
 C                 28           B28   27           A27   26           D26    0
 H                  7           B29    2           A28    1           D27    0
 H                  7           B30    2           A29    1           D28    0
 H                  7           B31    2           A30    1           D29    0
 H                 18           B32   17           A31    1           D30    0
 H                 18           B33   17           A32    1           D31    0
 H                 19           B34   18           A33   17           D32    0
 H                 19           B35   18           A34   17           D33    0
 H                 20           B36   19           A35   18           D34    0
 H                 20           B37   19           A36   18           D35    0
 H                 21           B38   20           A37   19           D36    0
 H                 21           B39   20           A38   19           D37    0
 H                 21           B40   20           A39   19           D38    0
 H                 22           B41   17           A40    1           D39    0
 H                 22           B42   17           A41    1           D40    0
 H                 23           B43   22           A42   17           D41    0
 H                 23           B44   22           A43   17           D42    0
 H                 24           B45   23           A44   22           D43    0
 H                 24           B46   23           A45   22           D44    0
 H                 25           B47   24           A46   23           D45    0
 H                 25           B48   24           A47   23           D46    0
 H                 25           B49   24           A48   23           D47    0
 H                 26           B50   17           A49    1           D48    0
 H                 26           B51   17           A50    1           D49    0
 H                 27           B52   26           A51   17           D50    0
 H                 27           B53   26           A52   17           D51    0
 H                 28           B54   27           A53   26           D52    0
 H                 28           B55   27           A54   26           D53    0
 H                 29           B56   28           A55   27           D54    0
 H                 29           B57   28           A56   27           D55    0
 H                 29           B58   28           A57   27           D56    0

   B1             1.47627264
   B2             1.47292119
   B3             1.54010115
   B4             1.52977579
   B5             1.53162792
   B6             1.45826724
   B7             1.11193889
   B8             1.11017062
   B9             1.09653753
   B10            1.09874215
   B11            1.09607241
   B12            1.09687538
   B13            1.09735832
   B14            1.09910520
   B15            1.09718349
   B16            2.23472572
   B17            2.20179899
   B18            1.53874550
   B19            1.53849722
   B20            1.53472942
   B21            2.20819672
   B22            1.53827946
   B23            1.53848707
   B24            1.53475064
   B25            2.20700391
   B26            1.53941836
   B27            1.53838098
   B28            1.53489024
   B29            1.10791315
   B30            1.09522240
   B31            1.09492728
   B32            1.09683393
   B33            1.09778677
   B34            1.09885385
   B35            1.09914689
   B36            1.09833906
   B37            1.09837778
   B38            1.09584725
   B39            1.09666463
   B40            1.09670842
   B41            1.09807821
   B42            1.09738911
   B43            1.09882030
   B44            1.09869215
   B45            1.09845753
   B46            1.09836869
   B47            1.09582014
   B48            1.09661094
   B49            1.09664962
   B50            1.09731803
   B51            1.09809284
   B52            1.09822862
   B53            1.09886252
   B54            1.09841256
   B55            1.09839992
   B56            1.09584808
   B57            1.09659756
   B58            1.09658210
   A1           111.86004965
   A2           110.56183983
   A3           112.08939039
   A4           110.48565914
   A5           112.64661999
   A6           109.74435321
   A7           110.73594227
   A8           108.01088084
   A9           109.53479970
   A10          109.34411364
   A11          109.28907522
   A12          108.92684192
   A13          109.46193572
   A14          110.82736453
   A15          113.07549011
   A16          109.36691731
   A17          115.53717905
   A18          113.44869329
   A19          113.33808562
   A20          110.59156755
   A21          115.76630167
   A22          113.36998044
   A23          113.39761959
   A24          107.27582425
   A25          115.34634579
   A26          113.38037716
   A27          113.38058287
   A28          113.21975759
   A29          109.75195397
   A30          110.70807420
   A31          107.06434169
   A32          107.15834315
   A33          110.11139871
   A34          109.96792383
   A35          109.07142782
   A36          109.06692634
   A37          111.43100166
   A38          111.24360612
   A39          111.26527885
   A40          106.89407146
   A41          107.81156997
   A42          110.02419373
   A43          109.90905263
   A44          109.03052447
   A45          109.09515950
   A46          111.40836213
   A47          111.25987106
   A48          111.25007643
   A49          107.45821066
   A50          107.75973006
   A51          110.19163988
   A52          109.78485166
   A53          109.08180502
   A54          109.04651886
   A55          111.42053307
   A56          111.24006991
   A57          111.26095601
   D1           -56.65667343
   D2            58.74249320
   D3           -56.68293856
   D4           179.34108774
   D5           -61.79991863
   D6           -63.44980948
   D7           179.78422762
   D8           -66.46305447
   D9           176.67683758
   D10         -179.08798921
   D11           63.97376015
   D12          -67.02602952
   D13          175.42946535
   D14           56.74705806
   D15           40.50029817
   D16         -157.45455954
   D17          179.86994250
   D18          179.98727288
   D19          -82.28865481
   D20         -150.79182612
   D21          177.79528319
   D22         -179.77652956
   D23          159.19945783
   D24         -162.19008931
   D25          179.20390771
   D26         -179.94675097
   D27           57.94601976
   D28          178.50411398
   D29          -63.22512364
   D30          -33.98452903
   D31           79.42426284
   D32          -58.12671214
   D33           57.99254231
   D34          -57.68360481
   D35           57.72997467
   D36          179.97561604
   D37          -59.93307709
   D38           59.88757643
   D39          -28.01665696
   D40           85.61930233
   D41          -60.23673583
   D42           55.88447610
   D43          -57.50454850
   D44           57.90725642
   D45          179.96688916
   D46          -59.94849670
   D47           59.88831864
   D48          -39.64002579
   D49           74.38550476
   D50          -58.75300811
   D51           57.41198304
   D52          -57.63467038
   D53           57.79235127
   D54         -179.93704701
   D55          -59.85354763
   D56           59.98000278

