$RunGaus
%mem=16000Mb
%nproc=8
# mp2/cc-pVTZ

2_methylpiperidine_ax_single_point

0 1 
 c
 c   1 cc2     
 c    2 cc3         1 ccc3      
 n    3 nc4         2 ncc4          1 dih4   
 c    4 cn5         3 cnc5          2 dih5   
 c    5 cc6         4 ccn6          3 dih6   
 c    3 cc7         4 ccn7          5 dih7   
 h    4 hn8         3 hnc8          2 dih8   
 h    3 hc9         4 hcn9          5 dih9   
 h    5 hc10        4 hcn10         3 dih10  
 h    5 hc11        4 hcn11         3 dih11  
 h    2 hc12        3 hcc12         4 dih12  
 h    2 hc13        3 hcc13         4 dih13  
 h    6 hc14        5 hcc14         4 dih14  
 h    6 hc15        5 hcc15         4 dih15  
 h    1 hc16        2 hcc16         3 dih16  
 h    1 hc17        2 hcc17         3 dih17  
 h    7 hc18        3 hcc18         4 dih18  
 h    7 hc19        3 hcc19         4 dih19  
 h    7 hc20        3 hcc20         4 dih20  
 
cc2         1.538154
cc3         1.542166
ccc3        112.571
nc4         1.474726
ncc4        108.357
dih4         53.134
cn5         1.467138
cnc5        115.100
dih5        -57.923
cc6         1.531924
ccn6        109.711
dih6         60.297
cc7         1.543270
ccn7        114.576
dih7         68.985
hn8         1.016181
hnc8        110.188
dih8        176.322
hc9         1.098032
hcn9        105.971
dih9       -173.094
hc10        1.106603
hcn10       113.219
dih10       -61.639
hc11        1.095817
hcn11       107.788
dih11      -179.578
hc12        1.097112
hcc12       107.985
dih12       -67.001
hc13        1.096888
hcc13       109.594
dih13       176.554
hc14        1.096969
hcc14       109.791
dih14      -178.391
hc15        1.097834
hcc15       108.667
dih15        64.292
hc16        1.098825
hcc16       110.133
dih16        68.079
hc17        1.096791
hcc17       109.867
dih17      -175.187
hc18        1.094498
hcc18       112.608
dih18       -64.144
hc19        1.096608
hcc19       110.504
dih19        56.350
hc20        1.096508
hcc20       110.601
dih20       175.414
 
 
 
 

