$RunGaus
%mem=16000Mb
%nproc=8
# mp2/cc-pVTZ

3_OH_hexahydropyrimidine_HB_single_point

0 1 
 c
 n   1 nc2     
 c    2 cn3         1 cnc3      
 c    3 cc4         2 ccn4          1 dih4   
 c    4 cc5         3 ccc5          2 dih5   
 n    5 nc6         4 ncc6          3 dih6   
 o    4 oc7         3 occ7          2 dih7   
 h    7 ho8         4 hoc8          3 dih8   
 h    6 hn9         5 hnc9          4 dih9   
 h    2 hn10        3 hnc10         4 dih10  
 h    4 hc11        3 hcc11         2 dih11  
 h    3 hc12        4 hcc12         5 dih12  
 h    3 hc13        4 hcc13         5 dih13  
 h    5 hc14        4 hcc14         3 dih14  
 h    5 hc15        4 hcc15         3 dih15  
 h    1 hc16        2 hcn16         3 dih16  
 h    1 hc17        2 hcn17         3 dih17  
 
nc2         1.476413
cn3         1.469100
cnc3        110.721
cc4         1.536173
ccn4        106.764
dih4        -63.797
cc5         1.541385
ccc5        109.122
dih5         58.427
nc6         1.469422
ncc6        113.093
dih6        -52.604
oc7         1.428736
occ7        109.799
dih7        -63.503
ho8         0.971210
hoc8        106.046
dih8         36.035
hn9         1.017065
hnc9        109.650
dih9        -72.884
hn10        1.016448
hnc10       111.531
dih10       171.844
hc11        1.096146
hcc11       110.430
dih11       179.319
hc12        1.105905
hcc12       109.544
dih12       -63.890
hc13        1.094498
hcc13       110.112
dih13       177.145
hc14        1.093796
hcc14       109.773
dih14      -174.231
hc15        1.099570
hcc15       109.174
dih15        67.964
hc16        1.093825
hcn16       108.729
dih16      -176.940
hc17        1.105568
hcn17       111.084
dih17       -57.945
 
 
 
 

