# mp2/cc-pVTZ

3b-aminotropane-3a

2 1
 N    -1.051617    -0.820053    -0.495000
 C    -1.009390     0.711357    -0.495692
 C     0.441511    -1.162660    -0.473382
 C    -0.595276     1.164981     0.920830
 C     0.968067    -0.854273     0.944862
 C     0.812858     0.644285     1.261493
 C    -1.816552    -1.426036    -1.650663
 N     1.138372     0.913810     2.732782
 C     1.001420    -0.230746    -1.570249
 C     0.045696     1.003745    -1.584928
 H    -2.006036     1.089720    -0.730630
 H     0.560707    -2.225686    -0.691148
 H    -0.629664     2.259334     0.949091
 H    -1.333106     0.805185     1.652275
 H     0.426502    -1.467563     1.679323
 H     2.018511    -1.161100     0.989809
 H     1.565020     1.220131     0.716355
 H    -1.380478    -1.099840    -2.592569
 H    -1.760315    -2.512173    -1.567163
 H    -2.854785    -1.098186    -1.584190
 H     2.092602     0.610527     2.969861
 H     1.081123     1.917002     2.954304
 H     1.008942    -0.736745    -2.537575
 H     2.040594     0.034638    -1.360781
 H    -0.431080     1.123346    -2.559705
 H     0.560552     1.946364    -1.383486
 H    -1.505888    -1.161621     0.357921
 H     0.498761     0.426256     3.373607

