# mp2/cc-pVTZ

3b-aminotropane-3c

2 1
 N    -1.040690    -0.817144    -0.727100
 C    -1.001790     0.717559    -0.700190
 C     0.455612    -1.157995    -0.678133
 C    -0.558650     1.192046     0.697871
 C     1.008917    -0.825293     0.721605
 C     0.856737     0.677759     1.015506
 C    -1.984163    -1.539429     0.195549
 N     1.218066     0.975684     2.473440
 C     0.991142    -0.242346    -1.801129
 C     0.030525     0.993877    -1.815670
 H    -2.002390     1.093522    -0.922694
 H     0.575199    -2.223595    -0.883687
 H    -0.586334     2.287066     0.693469
 H    -1.279452     0.862731     1.456292
 H     0.503064    -1.431253     1.483270
 H     2.063115    -1.122577     0.733588
 H     1.595256     1.244888     0.443171
 H    -1.741284    -1.338131     1.235393
 H    -2.999445    -1.201061    -0.018167
 H    -1.904353    -2.609885    -0.001229
 H     2.178439     0.678180     2.692310
 H     1.164651     1.982887     2.676952
 H     0.964970    -0.768014    -2.759028
 H     2.035863     0.027430    -1.629949
 H    -0.474359     1.084260    -2.780815
 H     0.548107     1.942034    -1.652475
 H    -1.348008    -1.067083    -1.674570
 H     0.595704     0.499932     3.139270

