$RunGaus
%mem=16000Mb
%nproc=8
# mp2/cc-pVTZ

4_methylpiperidine_eq_single_point

0 1 
 c
 c   1 cc2     
 c    2 cc3         1 ccc3      
 n    3 nc4         2 ncc4          1 dih4   
 c    4 cn5         3 cnc5          2 dih5   
 c    5 cc6         4 ccn6          3 dih6   
 c    1 cc7         2 ccc7          3 dih7   
 h    4 hn8         3 hnc8          2 dih8   
 h    3 hc9         4 hcn9          5 dih9   
 h    3 hc10        4 hcn10         5 dih10  
 h    5 hc11        4 hcn11         3 dih11  
 h    5 hc12        4 hcn12         3 dih12  
 h    2 hc13        3 hcc13         4 dih13  
 h    2 hc14        3 hcc14         4 dih14  
 h    6 hc15        5 hcc15         4 dih15  
 h    6 hc16        5 hcc16         4 dih16  
 h    1 hc17        2 hcc17         3 dih17  
 h    7 hc18        1 hcc18         2 dih18  
 h    7 hc19        1 hcc19         2 dih19  
 h    7 hc20        1 hcc20         2 dih20  
 
cc2         1.540260
cc3         1.532722
ccc3        111.519
nc4         1.464748
ncc4        109.694
dih4         56.323
cn5         1.464747
cnc5        112.349
dih5        -61.236
cc6         1.532723
ccn6        109.694
dih6         61.236
cc7         1.532869
ccc7        112.014
dih7       -177.323
hn8         1.015649
hnc8        110.547
dih8        174.752
hc9         1.095601
hcn9        108.530
dih9        178.123
hc10        1.108958
hcn10       112.087
dih10        59.774
hc11        1.108956
hcn11       112.087
dih11       -59.774
hc12        1.095603
hcn12       108.530
dih12      -178.123
hc13        1.098512
hcc13       108.738
dih13       -64.267
hc14        1.097784
hcc14       109.698
dih14       178.584
hc15        1.097785
hcc15       109.698
dih15      -178.583
hc16        1.098511
hcc16       108.738
dih16        64.269
hc17        1.102179
hcc17       107.469
dih17        64.266
hc18        1.096368
hcc18       111.291
dih18      -178.246
hc19        1.096369
hcc19       111.291
dih19       -58.000
hc20        1.097131
hcc20       110.921
dih20        61.877
 
 
 
 

