$RunGaus
%mem=16000Mb
%nproc=8
# mp2/cc-pVTZ

4_methylpiperidine_ax_single_point

0 1 
 c
 c   1 cc2     
 c    2 cc3         1 ccc3      
 n    3 nc4         2 ncc4          1 dih4   
 c    4 cn5         3 cnc5          2 dih5   
 c    5 cc6         4 ccn6          3 dih6   
 c    1 cc7         2 ccc7          3 dih7   
 h    4 hn8         3 hnc8          2 dih8   
 h    3 hc9         4 hcn9          5 dih9   
 h    3 hc10        4 hcn10         5 dih10  
 h    5 hc11        4 hcn11         3 dih11  
 h    5 hc12        4 hcn12         3 dih12  
 h    2 hc13        3 hcc13         4 dih13  
 h    2 hc14        3 hcc14         4 dih14  
 h    6 hc15        5 hcc15         4 dih15  
 h    6 hc16        5 hcc16         4 dih16  
 h    1 hc17        2 hcc17         3 dih17  
 h    7 hc18        1 hcc18         2 dih18  
 h    7 hc19        1 hcc19         2 dih19  
 h    7 hc20        1 hcc20         2 dih20  
 
cc2         1.546337
cc3         1.533879
ccc3        112.492
nc4         1.466151
ncc4        109.517
dih4         55.855
cn5         1.466148
cnc5        112.290
dih5        -61.720
cc6         1.533879
ccn6        109.517
dih6         61.720
cc7         1.538685
ccc7        112.602
dih7         75.590
hn8         1.015763
hnc8        110.448
dih8        174.514
hc9         1.095614
hcn9        108.459
dih9        178.425
hc10        1.107366
hcn10       112.177
dih10        60.428
hc11        1.107365
hcn11       112.177
dih11       -60.427
hc12        1.095615
hcn12       108.459
dih12      -178.425
hc13        1.097238
hcc13       107.937
dih13       -64.446
hc14        1.097618
hcc14       109.731
dih14       178.892
hc15        1.097618
hcc15       109.731
dih15      -178.892
hc16        1.097239
hcc16       107.937
dih16        64.445
hc17        1.098756
hcc17       107.571
dih17      -166.908
hc18        1.096326
hcc18       110.780
dih18        58.191
hc19        1.096327
hcc19       110.779
dih19       177.626
hc20        1.094835
hcc20       112.572
dih20       -62.091
 
 
 
 

