$RunGaus
%mem=16000Mb
%nproc=8
# mp2/cc-pVTZ

butanediamine_tTTTt_single_point

0 1 
 c
 c   1 cc2     
 c    2 cc3         1 ccc3      
 c    3 cc4         2 ccc4          1 dih4   
 n    4 nc5         3 ncc5          2 dih5   
 n    1 nc6         2 ncc6          3 dih6   
 h    1 hc7         2 hcc7          3 dih7   
 h    1 hc8         2 hcc8          3 dih8   
 h    6 hn9         1 hnc9          2 dih9   
 h    6 hn10        1 hnc10         2 dih10  
 h    4 hc11        3 hcc11         2 dih11  
 h    4 hc12        3 hcc12         2 dih12  
 h    5 hn13        4 hnc13         3 dih13  
 h    5 hn14        4 hnc14         3 dih14  
 h    2 hc15        1 hcc15         6 dih15  
 h    2 hc16        1 hcc16         6 dih16  
 h    3 hc17        2 hcc17         1 dih17  
 h    3 hc18        2 hcc18         1 dih18  
 
cc2         1.538362
cc3         1.535078
ccc3        113.341
cc4         1.538351
ccc4        113.341
dih4        179.999
nc5         1.465789
ncc5        116.354
dih5        179.999
nc6         1.465817
ncc6        116.353
dih6        180.000
hc7         1.097523
hcc7        109.366
dih7         57.941
hc8         1.097519
hcc8        109.366
dih8        -57.943
hn9         1.017086
hnc9        111.044
dih9         59.571
hn10        1.017086
hnc10       111.044
dih10       -59.554
hc11        1.097525
hcc11       109.365
dih11        57.940
hc12        1.097526
hcc12       109.366
dih12       -57.940
hn13        1.017089
hnc13       111.046
dih13       -59.561
hn14        1.017089
hnc14       111.045
dih14        59.564
hc15        1.100102
hcc15       108.934
dih15       -57.745
hc16        1.100103
hcc16       108.933
dih16        57.746
hc17        1.100106
hcc17       109.568
dih17       -58.099
hc18        1.100105
hcc18       109.568
dih18        58.098
 
 
 
 

