$RunGaus
%mem=16000Mb
%nproc=8
# mp2/cc-pVTZ

EtdiMeNH+_g_single_point

1 1 
 c
 c   1 cc2     
 n    2 nc3         1 ncc3      
 c    3 cn4         2 cnc4          1 dih4   
 c    3 cn5         2 cnc5          1 dih5   
 h    1 hc6         2 hcc6          3 dih6   
 h    1 hc7         2 hcc7          3 dih7   
 h    1 hc8         2 hcc8          3 dih8   
 h    2 hc9         3 hcn9          5 dih9   
 h    2 hc10        3 hcn10         5 dih10  
 h    5 hc11        3 hcn11         2 dih11  
 h    5 hc12        3 hcn12         2 dih12  
 h    5 hc13        3 hcn13         2 dih13  
 h    3 hn14        2 hnc14         1 dih14  
 h    4 hc15        3 hcn15         2 dih15  
 h    4 hc16        3 hcn16         2 dih16  
 h    4 hc17        3 hcn17         2 dih17  
 
cc2         1.521138
nc3         1.532804
ncc3        114.417
cn4         1.506764
cnc4        113.246
dih4         64.195
cn5         1.506757
cnc5        113.247
dih5        -64.194
hc6         1.093775
hcc6        107.527
dih6        179.999
hc7         1.092639
hcc7        112.761
dih7        -62.248
hc8         1.092636
hcc8        112.760
dih8         62.247
hc9         1.093042
hcn9        105.445
dih9        173.027
hc10        1.093036
hcn10       105.445
dih10        58.586
hc11        1.090491
hcn11       108.632
dih11      -171.870
hc12        1.090501
hcn12       108.944
dih12       -51.926
hc13        1.088935
hcn13       109.018
dih13        68.475
hn14        1.024379
hnc14       105.166
dih14      -180.000
hc15        1.090498
hcn15       108.944
dih15        51.924
hc16        1.088939
hcn16       109.017
dih16       -68.477
hc17        1.090484
hcn17       108.632
dih17       171.868
 
 
 
 

