$RunGaus
%mem=16000Mb
%nproc=8
# mp2/cc-pVTZ

ethanediamine_tTt_single_point

0 1 
 c
 n   1 nc2     
 c    1 cc3         2 ccn3      
 n    3 nc4         1 ncc4          2 dih4   
 h    1 hc5         3 hcc5          4 dih5   
 h    1 hc6         3 hcc6          4 dih6   
 h    3 hc7         1 hcc7          2 dih7   
 h    3 hc8         1 hcc8          2 dih8   
 h    4 hn9         3 hnc9          1 dih9   
 h    4 hn10        3 hnc10         1 dih10  
 h    2 hn11        1 hnc11         3 dih11  
 h    2 hn12        1 hnc12         3 dih12  
 
nc2         1.468462
cc3         1.530153
ccn3        110.347
nc4         1.468487
ncc4        110.346
dih4        179.998
hc5         1.097745
hcc5        108.976
dih5        -62.122
hc6         1.101181
hcc6        108.456
dih6         53.989
hc7         1.101180
hcc7        108.457
dih7        -53.993
hc8         1.097745
hcc8        108.977
dih8         62.120
hn9         1.017059
hnc9        110.898
dih9         69.843
hn10        1.015525
hnc10       111.153
dih10      -171.061
hn11        1.015521
hnc11       111.155
dih11       171.039
hn12        1.017053
hnc12       110.900
dih12       -69.859
 
 
 
 

