$RunGaus
%mem=16000Mb
%nproc=8
# mp2/cc-pVTZ

ethanediamineH+_Gg_single_point

1 1 
 c
 n   1 nc2     
 c    1 cc3         2 ccn3      
 n    3 nc4         1 ncc4          2 dih4   
 h    1 hc5         3 hcc5          4 dih5   
 h    1 hc6         3 hcc6          4 dih6   
 h    3 hc7         1 hcc7          2 dih7   
 h    3 hc8         1 hcc8          2 dih8   
 h    4 hn9         3 hnc9          1 dih9   
 h    2 hn10        1 hnc10         3 dih10  
 h    4 hn11        3 hnc11         1 dih11  
 h    2 hn12        1 hnc12         3 dih12  
 h    4 hn13        3 hnc13         1 dih13  
 
nc2         1.471313
cc3         1.541978
ccn3        107.655
nc4         1.513906
ncc4        106.131
dih4         41.906
hc5         1.094899
hcc5        108.792
dih5        166.394
hc6         1.094504
hcc6        109.899
dih6        -76.347
hc7         1.090478
hcc7        113.437
dih7        162.709
hc8         1.092254
hcc8        111.378
dih8        -73.554
hn9         1.023682
hnc9        112.743
dih9         84.190
hn10        1.015918
hnc10       112.321
dih10      -148.943
hn11        1.022308
hnc11       113.854
dih11      -151.974
hn12        1.017607
hnc12       112.492
dih12        89.994
hn13        1.060742
hnc13       101.606
dih13       -32.272
 
 
 
 

