$RunGaus
%mem=16000Mb
%nproc=8
# mp2/cc-pVTZ

ethylenediamine_a_g+_g+_single_point

0 1 
 c
 n   1 nc2     
 c    1 cc3         2 ccn3      
 n    3 nc4         1 ncc4          2 dih4   
 h    1 hc5         3 hcc5          4 dih5   
 h    1 hc6         3 hcc6          4 dih6   
 h    3 hc7         1 hcc7          2 dih7   
 h    3 hc8         1 hcc8          2 dih8   
 h    2 hn9         1 hnc9          3 dih9   
 h    2 hn10        1 hnc10         3 dih10  
 h    4 hn11        3 hnc11         1 dih11  
 h    4 hn12        3 hnc12         1 dih12  
 
nc2         1.466767
cc3         1.529103
ccn3        110.373
nc4         1.466768
ncc4        110.373
dih4        179.431
hc5         1.094674
hcc5        108.559
dih5        -61.800
hc6         1.105573
hcc6        108.910
dih6         54.040
hc7         1.094673
hcc7        108.559
dih7        -61.800
hc8         1.105572
hcc8        108.910
dih8         54.040
hn9         1.015288
hnc9        111.288
dih9        170.062
hn10        1.016695
hnc10       111.368
dih10       -70.118
hn11        1.015288
hnc11       111.288
dih11       170.063
hn12        1.016697
hnc12       111.368
dih12       -70.117
 
 
 
 

