$RunGaus
%mem=16000Mb
%nproc=8
# mp2/cc-pVTZ

formamidine_t_single_point

0 1 
 c
 n   1 nc2     
 n    1 nc3         2 ncn3      
 h    1 hc4         2 hcn4          3 dih4   
 h    3 hn5         1 hnc5          2 dih5   
 h    2 hn6         1 hnc6          3 dih6   
 h    2 hn7         1 hnc7          3 dih7   
 
nc2         1.365707
nc3         1.281038
ncn3        122.171
hc4         1.097697
hcn4        112.850
dih4        180.000
hn5         1.018002
hnc5        110.639
dih5        180.000
hn6         1.005077
hnc6        121.669
dih6        180.000
hn7         1.009284
hnc7        119.078
dih7          0.000
 
 
 
 

