$RunGaus
%mem=16000Mb
%nproc=8
# mp2/cc-pVTZ

Gly_Gly_Z_single_point

0 1 
 c
 c   1 cc2     
 n    2 nc3         1 ncc3      
 c    3 cn4         2 cnc4          1 dih4   
 c    4 cc5         3 ccn5          2 dih5   
 o    5 oc6         4 occ6          3 dih6   
 n    1 nc7         2 ncc7          3 dih7   
 o    2 oc8         1 occ8          7 dih8   
 o    5 oc9         4 occ9          3 dih9   
 h    7 hn10        1 hnc10         2 dih10  
 h    1 hc11        2 hcc11         8 dih11  
 h    1 hc12        2 hcc12         8 dih12  
 h    6 ho13        5 hoc13         4 dih13  
 h    7 hn14        1 hnc14         2 dih14  
 h    3 hn15        2 hnc15         1 dih15  
 h    4 hc16        3 hcn16         2 dih16  
 h    4 hc17        3 hcn17         2 dih17  
 
cc2         1.531072
nc3         1.367466
ncc3        118.629
cn4         1.458781
cnc4        129.939
dih4          2.854
cc5         1.543535
ccn5        114.928
dih5       -101.332
oc6         1.331314
occ6        115.892
dih6         63.500
nc7         1.485147
ncc7        110.330
dih7         65.587
oc8         1.229391
occ8        120.092
dih8       -112.940
oc9         1.213781
occ9        121.374
dih9       -116.680
hn10        1.019873
hnc10       108.869
dih10        72.182
hc11        1.095632
hcc11       110.089
dih11       128.214
hc12        1.092454
hcc12       106.707
dih12        11.010
ho13        1.008835
hoc13       110.609
dih13         4.393
hn14        1.018211
hnc14       110.328
dih14      -171.926
hn15        1.013881
hnc15       112.591
dih15      -173.728
hc16        1.093535
hcn16       109.310
dih16        21.718
hc17        1.091847
hcn17       108.760
dih17       138.824
 
 
 
 

