$RunGaus
%mem=16000Mb
%nproc=8
# mp2/cc-pVTZ

hexahydropyrimidine_lp_H_single_point

0 1 
 c
 n   1 nc2     
 c    2 cn3         1 cnc3      
 c    3 cc4         2 ccn4          1 dih4   
 c    4 cc5         3 ccc5          2 dih5   
 n    5 nc6         4 ncc6          3 dih6   
 h    6 hn7         5 hnc7          4 dih7   
 h    2 hn8         3 hnc8          4 dih8   
 h    4 hc9         3 hcc9          2 dih9   
 h    3 hc10        4 hcc10         5 dih10  
 h    3 hc11        4 hcc11         5 dih11  
 h    5 hc12        4 hcc12         3 dih12  
 h    5 hc13        4 hcc13         3 dih13  
 h    1 hc14        2 hcn14         3 dih14  
 h    1 hc15        2 hcn15         3 dih15  
 h    4 hc16        3 hcc16         2 dih16  
 
nc2         1.470893
cn3         1.467812
cnc3        111.376
cc4         1.534759
ccn4        108.995
dih4        -59.423
cc5         1.539482
ccc5        110.121
dih5         53.474
nc6         1.470589
ncc6        113.218
dih6        -50.523
hn7         1.018403
hnc7        109.368
dih7        -68.697
hn8         1.017228
hnc8        110.839
dih8        177.146
hc9         1.097541
hcc9        108.876
dih9        -66.656
hc10        1.108508
hcc10       108.862
dih10       -68.959
hc11        1.095216
hcc11       110.695
dih11       173.242
hc12        1.095255
hcc12       111.115
dih12      -173.007
hc13        1.099208
hcc13       109.532
dih13        69.199
hc14        1.094306
hcn14       108.595
dih14      -177.615
hc15        1.106552
hcn15       111.856
dih15       -58.459
hc16        1.097681
hcc16       110.148
dih16       175.487
 
 
 
 

