$RunGaus
%mem=16000Mb
%nproc=8
# mp2/cc-pVTZ

isopropylamine_g_single_point

0 1 
 c
 c   1 cc2     
 n    2 nc3         1 ncc3      
 c    2 cc4         3 ccn4          1 dih4   
 h    1 hc5         2 hcc5          4 dih5   
 h    1 hc6         2 hcc6          4 dih6   
 h    1 hc7         2 hcc7          4 dih7   
 h    2 hc8         1 hcc8          5 dih8   
 h    4 hc9         2 hcc9          1 dih9   
 h    4 hc10        2 hcc10         1 dih10  
 h    4 hc11        2 hcc11         1 dih11  
 h    3 hn12        2 hnc12         1 dih12  
 h    3 hn13        2 hnc13         1 dih13  
 
cc2         1.531379
nc3         1.472095
ncc3        108.802
cc4         1.538755
ccn4        114.083
dih4        125.208
hc5         1.093721
hcc5        110.552
dih5        177.963
hc6         1.098212
hcc6        110.664
dih6        -62.383
hc7         1.095133
hcc7        111.117
dih7         57.086
hc8         1.098788
hcc8        108.009
dih8         59.332
hc9         1.096330
hcc9        111.018
dih9       -179.511
hc10        1.096909
hcc10       111.474
dih10       -59.304
hc11        1.097728
hcc11       110.664
dih11        60.764
hn12        1.017246
hnc12       110.973
dih12       178.726
hn13        1.018679
hnc13       110.480
dih13       -62.730
 
 
 
 

