$RunGaus
%mem=16000Mb
%nproc=8
# mp2/cc-pVTZ

isopropylamine_a_single_point

0 1 
 c
 c   1 cc2     
 n    2 nc3         1 ncc3      
 c    2 cc4         3 ccn4          1 dih4   
 h    1 hc5         2 hcc5          4 dih5   
 h    1 hc6         2 hcc6          4 dih6   
 h    1 hc7         2 hcc7          4 dih7   
 h    2 hc8         1 hcc8          5 dih8   
 h    4 hc9         2 hcc9          1 dih9   
 h    4 hc10        2 hcc10         1 dih10  
 h    4 hc11        2 hcc11         1 dih11  
 h    3 hn12        2 hnc12         1 dih12  
 h    3 hn13        2 hnc13         1 dih13  
 
cc2         1.530987
nc3         1.471868
ncc3        108.879
cc4         1.530955
ccn4        108.881
dih4        121.980
hc5         1.096726
hcc5        111.159
dih5       -179.988
hc6         1.095475
hcc6        110.313
dih6        -60.222
hc7         1.095360
hcc7        110.854
dih7         60.293
hc8         1.105635
hcc8        107.788
dih8         61.793
hc9         1.096730
hcc9        111.162
dih9        179.996
hc10        1.095363
hcc10       110.856
dih10       -60.285
hc11        1.095480
hcc11       110.313
dih11        60.228
hn12        1.017072
hnc12       111.110
dih12        59.315
hn13        1.017075
hnc13       111.110
dih13       178.749
 
 
 
 

