$RunGaus
%mem=16000Mb
%nproc=8
# mp2/cc-pVTZ

N_2_dimethylpiperidine_eq_eq_single_point

0 1 
 c
 c   1 cc2     
 c    2 cc3         1 ccc3      
 n    3 nc4         2 ncc4          1 dih4   
 c    4 cn5         3 cnc5          2 dih5   
 c    5 cc6         4 ccn6          3 dih6   
 c    3 cc7         4 ccn7          5 dih7   
 c    4 cn8         3 cnc8          2 dih8   
 h    3 hc9         4 hcn9          5 dih9   
 h    5 hc10        4 hcn10         3 dih10  
 h    5 hc11        4 hcn11         3 dih11  
 h    2 hc12        3 hcc12         4 dih12  
 h    2 hc13        3 hcc13         4 dih13  
 h    6 hc14        5 hcc14         4 dih14  
 h    6 hc15        5 hcc15         4 dih15  
 h    1 hc16        2 hcc16         3 dih16  
 h    1 hc17        2 hcc17         3 dih17  
 h    8 hc18        4 hcn18         3 dih18  
 h    8 hc19        4 hcn19         3 dih19  
 h    8 hc20        4 hcn20         3 dih20  
 h    7 hc21        3 hcc21         4 dih21  
 h    7 hc22        3 hcc22         4 dih22  
 h    7 hc23        3 hcc23         4 dih23  
 
cc2         1.531988
cc3         1.539851
ccc3        112.731
nc4         1.476975
ncc4        109.908
dih4         54.759
cn5         1.468048
cnc5        111.843
dih5        -57.148
cc6         1.528556
ccn6        112.144
dih6         59.488
cc7         1.533670
ccn7        112.091
dih7       -179.503
cn8         1.459902
cnc8        113.223
dih8        177.914
hc9         1.112809
hcn9        109.108
dih9         60.903
hc10        1.111619
hcn10       110.779
dih10       -62.825
hc11        1.095799
hcn11       107.810
dih11      -179.306
hc12        1.098680
hcc12       108.182
dih12       -66.640
hc13        1.096969
hcc13       108.605
dih13       177.412
hc14        1.096989
hcc14       109.355
dih14      -179.052
hc15        1.097597
hcc15       108.900
dih15        63.888
hc16        1.099659
hcc16       109.463
dih16        67.120
hc17        1.096774
hcc17       110.476
dih17      -175.674
hc18        1.108888
hcn18       112.845
dih18        58.093
hc19        1.094225
hcn19       109.112
dih19       177.975
hc20        1.091647
hcn20       111.014
dih20       -63.687
hc21        1.095039
hcc21       109.532
dih21       172.375
hc22        1.093289
hcc22       112.850
dih22       -68.222
hc23        1.096016
hcc23       110.384
dih23        53.317
 
 
 
 

