$RunGaus
%mem=16000Mb
%nproc=8
# mp2/cc-pVTZ

N_3_dimethylpiperidine_eq_eq_single_point

0 1 
 c
 c   1 cc2     
 c    2 cc3         1 ccc3      
 n    3 nc4         2 ncc4          1 dih4   
 c    4 cn5         3 cnc5          2 dih5   
 c    5 cc6         4 ccn6          3 dih6   
 c    4 cn7         3 cnc7          2 dih7   
 c    2 cc8         3 ccc8          4 dih8   
 h    3 hc9         4 hcn9          5 dih9   
 h    5 hc10        4 hcn10         3 dih10  
 h    5 hc11        4 hcn11         3 dih11  
 h    2 hc12        3 hcc12         4 dih12  
 h    6 hc13        5 hcc13         4 dih13  
 h    6 hc14        5 hcc14         4 dih14  
 h    1 hc15        2 hcc15         3 dih15  
 h    1 hc16        2 hcc16         3 dih16  
 h    7 hc17        4 hcn17         3 dih17  
 h    7 hc18        4 hcn18         3 dih18  
 h    7 hc19        4 hcn19         3 dih19  
 h    3 hc20        4 hcn20         5 dih20  
 h    8 hc21        2 hcc21         3 dih21  
 h    8 hc22        2 hcc22         3 dih22  
 h    8 hc23        2 hcc23         3 dih23  
 
cc2         1.538002
cc3         1.536107
ccc3        109.753
nc4         1.463588
ncc4        112.106
dih4         55.465
cn5         1.463569
cnc5        111.617
dih5        -59.407
cc6         1.530933
ccn6        111.140
dih6         58.829
cn7         1.455890
cnc7        111.697
dih7        174.698
cc8         1.533013
ccc8        111.194
dih8       -179.836
hc9         1.096766
hcn9        108.105
dih9        179.492
hc10        1.111916
hcn10       110.841
dih10       -63.014
hc11        1.096092
hcn11       108.211
dih11       179.992
hc12        1.099496
hcc12       106.987
dih12       -61.420
hc13        1.096865
hcc13       109.408
dih13      -177.821
hc14        1.097441
hcc14       108.784
dih14        65.258
hc15        1.100873
hcc15       108.887
dih15        68.459
hc16        1.097477
hcc16       110.163
dih16      -174.963
hc17        1.108814
hcn17       112.930
dih17        62.912
hc18        1.094920
hcn18       109.793
dih18      -176.471
hc19        1.094897
hcn19       109.822
dih19       -57.743
hc20        1.112701
hcn20       110.940
dih20        62.680
hc21        1.097149
hcc21       111.184
dih21       -61.763
hc22        1.096345
hcc22       111.433
dih22        58.449
hc23        1.095756
hcc23       110.985
dih23       178.484
 
 
 
 

