$RunGaus
%mem=16000Mb
%nproc=8
# mp2/cc-pVTZ

N_4_dimethylpiperidine_eq_ax_single_point

0 1 
 c
 c   1 cc2     
 c    2 cc3         1 ccc3      
 n    3 nc4         2 ncc4          1 dih4   
 c    4 cn5         3 cnc5          2 dih5   
 c    5 cc6         4 ccn6          3 dih6   
 c    4 cn7         3 cnc7          2 dih7   
 c    1 cc8         2 ccc8          3 dih8   
 h    3 hc9         4 hcn9          5 dih9   
 h    5 hc10        4 hcn10         3 dih10  
 h    5 hc11        4 hcn11         3 dih11  
 h    2 hc12        3 hcc12         4 dih12  
 h    6 hc13        5 hcc13         4 dih13  
 h    6 hc14        5 hcc14         4 dih14  
 h    1 hc15        2 hcc15         3 dih15  
 h    7 hc16        4 hcn16         3 dih16  
 h    7 hc17        4 hcn17         3 dih17  
 h    7 hc18        4 hcn18         3 dih18  
 h    3 hc19        4 hcn19         5 dih19  
 h    2 hc20        3 hcc20         4 dih20  
 h    8 hc21        1 hcc21         2 dih21  
 h    8 hc22        1 hcc22         2 dih22  
 h    8 hc23        1 hcc23         2 dih23  
 
cc2         1.544043
cc3         1.532666
ccc3        112.635
nc4         1.464156
ncc4        111.126
dih4         55.687
cn5         1.464154
cnc5        111.358
dih5        -59.423
cc6         1.532656
ccn6        111.126
dih6         59.423
cn7         1.455487
cnc7        111.743
dih7        174.832
cc8         1.538599
ccc8        112.708
dih8         75.440
hc9         1.096228
hcn9        108.156
dih9       -179.778
hc10        1.110330
hcn10       110.906
dih10       -63.665
hc11        1.096231
hcn11       108.156
dih11       179.779
hc12        1.097188
hcc12       108.056
dih12       -64.833
hc13        1.097548
hcc13       109.376
dih13      -178.765
hc14        1.097190
hcc14       108.056
dih14        64.833
hc15        1.098689
hcc15       107.698
dih15      -166.791
hc16        1.108949
hcn16       112.925
dih16        62.766
hc17        1.094937
hcn17       109.809
dih17      -176.614
hc18        1.094936
hcn18       109.810
dih18       -57.854
hc19        1.110330
hcn19       110.906
dih19        63.665
hc20        1.097548
hcc20       109.376
dih20       178.764
hc21        1.094812
hcc21       112.548
dih21       -61.811
hc22        1.096262
hcc22       110.750
dih22        58.467
hc23        1.096261
hcc23       110.750
dih23       177.911
 
 
 
 

