$RunGaus
%mem=16000Mb
%nproc=8
# mp2/cc-pVTZ

N_Ac_Gly_N_methylamide_aa_single_point

0 1 
 c
 c   1 cc2     
 n    2 nc3         1 ncc3      
 c    3 cn4         2 cnc4          1 dih4   
 c    4 cc5         3 ccn5          2 dih5   
 n    5 nc6         4 ncc6          3 dih6   
 c    6 cn7         5 cnc7          4 dih7   
 o    2 oc8         3 ocn8          4 dih8   
 o    5 oc9         4 occ9          3 dih9   
 h    1 hc10        2 hcc10         8 dih10  
 h    1 hc11        2 hcc11         8 dih11  
 h    1 hc12        2 hcc12         8 dih12  
 h    4 hc13        3 hcn13         2 dih13  
 h    4 hc14        3 hcn14         2 dih14  
 h    3 hn15        2 hnc15         1 dih15  
 h    6 hn16        5 hnc16         4 dih16  
 h    7 hc17        6 hcn17         5 dih17  
 h    7 hc18        6 hcn18         5 dih18  
 h    7 hc19        6 hcn19         5 dih19  
 
cc2         1.520420
nc3         1.362243
ncc3        115.377
cn4         1.442963
cnc4        121.764
dih4        179.979
cc5         1.530290
ccn5        108.854
dih5       -179.925
nc6         1.356688
ncc6        115.401
dih6        179.982
cn7         1.458143
cnc7        121.758
dih7        179.991
oc8         1.231104
ocn8        121.726
dih8         -0.022
oc9         1.231016
occ9        121.974
dih9         -0.025
hc10        1.095495
hcc10       110.938
dih10       120.076
hc11        1.095494
hcc11       110.938
dih11      -120.090
hc12        1.089956
hcc12       108.653
dih12        -0.006
hc13        1.098379
hcn13       110.743
dih13       -58.849
hc14        1.098393
hcn14       110.748
dih14        59.007
hn15        1.013818
hnc15       122.577
dih15         0.032
hn16        1.009355
hnc16       119.100
dih16        -0.007
hc17        1.091216
hcn17       108.636
dih17      -179.958
hc18        1.093987
hcn18       110.753
dih18       -59.978
hc19        1.093996
hcn19       110.757
dih19        60.061
 
 
 
 

