$RunGaus
%mem=16000Mb
%nproc=8
# mp2/cc-pVTZ

N_Ac_Ala_N_Me_g_g_+_single_point

0 1 
 c
 c   1 cc2     
 n    2 nc3         1 ncc3      
 c    3 cn4         2 cnc4          1 dih4   
 c    4 cc5         3 ccn5          2 dih5   
 o    2 oc6         3 ocn6          4 dih6   
 c    4 cc7         3 ccn7          2 dih7   
 n    7 nc8         4 ncc8          3 dih8   
 c    8 cn9         7 cnc9          4 dih9   
 o    7 oc10        4 occ10         3 dih10  
 h    1 hc11        2 hcc11         6 dih11  
 h    1 hc12        2 hcc12         6 dih12  
 h    1 hc13        2 hcc13         6 dih13  
 h    4 hc14        3 hcn14         2 dih14  
 h    3 hn15        2 hnc15         1 dih15  
 h    8 hn16        7 hnc16         4 dih16  
 h    9 hc17        8 hcn17         7 dih17  
 h    9 hc18        8 hcn18         7 dih18  
 h    9 hc19        8 hcn19         7 dih19  
 h    5 hc20        4 hcc20         3 dih20  
 h    5 hc21        4 hcc21         3 dih21  
 h    5 hc22        4 hcc22         3 dih22  
 
cc2         1.517850
nc3         1.360668
ncc3        116.163
cn4         1.476540
cnc4        127.004
dih4        175.031
cc5         1.537582
ccn5        112.718
dih5        -56.403
oc6         1.236610
ocn6        122.940
dih6         -4.973
cc7         1.548438
ccn7        114.538
dih7         73.099
nc8         1.351748
ncc8        116.879
dih8        -55.353
cn9         1.455195
cnc9        121.300
dih9       -178.419
oc10        1.232781
occ10       119.586
dih10       126.709
hc11        1.093426
hcc11       113.925
dih11      -176.484
hc12        1.094041
hcc12       108.433
dih12        62.097
hc13        1.093188
hcc13       108.692
dih13       -54.434
hc14        1.091699
hcn14       105.010
dih14      -174.280
hn15        1.009211
hnc15       117.058
dih15        -4.184
hn16        1.017830
hnc16       118.147
dih16         1.366
hc17        1.091600
hcn17       108.569
dih17      -176.485
hc18        1.095226
hcn18       111.142
dih18        63.399
hc19        1.094486
hcn19       110.819
dih19       -56.465
hc20        1.094698
hcc20       109.967
dih20       -57.491
hc21        1.091226
hcc21       111.642
dih21        63.175
hc22        1.094156
hcc22       109.210
dih22      -176.299
 
 
 
 

