$RunGaus
%mem=16000Mb
%nproc=8
# mp2/cc-pVTZ

N_Ac_Ala_N_methylamide_g_g_plus_single_point

0 1 
 c
 c   1 cc2     
 n    2 nc3         1 ncc3      
 c    3 cn4         2 cnc4          1 dih4   
 c    4 cc5         3 ccn5          2 dih5   
 o    2 oc6         3 ocn6          4 dih6   
 c    4 cc7         3 ccn7          2 dih7   
 n    7 nc8         4 ncc8          3 dih8   
 c    8 cn9         7 cnc9          4 dih9   
 o    7 oc10        4 occ10         3 dih10  
 h    1 hc11        2 hcc11         6 dih11  
 h    1 hc12        2 hcc12         6 dih12  
 h    1 hc13        2 hcc13         6 dih13  
 h    4 hc14        3 hcn14         2 dih14  
 h    3 hn15        2 hnc15         1 dih15  
 h    8 hn16        7 hnc16         4 dih16  
 h    9 hc17        8 hcn17         7 dih17  
 h    9 hc18        8 hcn18         7 dih18  
 h    9 hc19        8 hcn19         7 dih19  
 h    5 hc20        4 hcc20         3 dih20  
 h    5 hc21        4 hcc21         3 dih21  
 h    5 hc22        4 hcc22         3 dih22  
 
cc2         1.517846
nc3         1.360668
ncc3        116.164
cn4         1.476510
cnc4        127.005
dih4        175.040
cc5         1.537597
ccn5        112.717
dih5        -56.414
oc6         1.236621
ocn6        122.940
dih6         -4.961
cc7         1.548447
ccn7        114.542
dih7         73.085
nc8         1.351745
ncc8        116.878
dih8        -55.341
cn9         1.455204
cnc9        121.300
dih9       -178.418
oc10        1.232786
occ10       119.587
dih10       126.722
hc11        1.093425
hcc11       113.930
dih11      -176.461
hc12        1.094053
hcc12       108.429
dih12        62.123
hc13        1.093182
hcc13       108.689
dih13       -54.403
hc14        1.091701
hcn14       105.011
dih14      -174.290
hn15        1.009214
hnc15       117.056
dih15        -4.218
hn16        1.017842
hnc16       118.146
dih16         1.366
hc17        1.091598
hcn17       108.567
dih17      -176.477
hc18        1.095228
hcn18       111.142
dih18        63.406
hc19        1.094487
hcn19       110.819
dih19       -56.457
hc20        1.094699
hcc20       109.967
dih20       -57.491
hc21        1.091225
hcc21       111.641
dih21        63.174
hc22        1.094155
hcc22       109.210
dih22      -176.299
 
 
 
 

