$RunGaus
%mem=16000Mb
%nproc=8
# mp2/cc-pVTZ

N_methylacetamide_E_single_point

0 1 
 c
 c   1 cc2     
 n    2 nc3         1 ncc3      
 c    3 cn4         2 cnc4          1 dih4   
 o    2 oc5         3 ocn5          4 dih5   
 h    3 hn6         2 hnc6          1 dih6   
 h    1 hc7         2 hcc7          5 dih7   
 h    1 hc8         2 hcc8          5 dih8   
 h    1 hc9         2 hcc9          5 dih9   
 h    4 hc10        3 hcn10         2 dih10  
 h    4 hc11        3 hcn11         2 dih11  
 h    4 hc12        3 hcn12         2 dih12  
 
cc2         1.519139
nc3         1.369954
ncc3        116.530
cn4         1.455152
cnc4        127.095
dih4          0.032
oc5         1.228939
ocn5        121.099
dih5       -179.972
hn6         1.011110
hnc6        114.024
dih6        179.986
hc7         1.095725
hcc7        111.241
dih7       -120.104
hc8         1.089645
hcc8        108.270
dih8         -0.014
hc9         1.095728
hcc9        111.239
dih9        120.073
hc10        1.091681
hcn10       108.417
dih10       179.998
hc11        1.096407
hcn11       112.082
dih11       -61.142
hc12        1.096415
hcn12       112.086
dih12        61.135
 
 
 
 

