$RunGaus
%mem=16000Mb
%nproc=8
# mp2/cc-pVTZ

N_Me_piperidine_eq_single_point

0 1 
 c
 c   1 cc2     
 c    2 cc3         1 ccc3      
 n    3 nc4         2 ncc4          1 dih4   
 c    4 cn5         3 cnc5          2 dih5   
 c    5 cc6         4 ccn6          3 dih6   
 c    4 cn7         3 cnc7          2 dih7   
 h    3 hc8         4 hcn8          5 dih8   
 h    3 hc9         4 hcn9          5 dih9   
 h    5 hc10        4 hcn10         3 dih10  
 h    5 hc11        4 hcn11         3 dih11  
 h    2 hc12        3 hcc12         4 dih12  
 h    2 hc13        3 hcc13         4 dih13  
 h    6 hc14        5 hcc14         4 dih14  
 h    6 hc15        5 hcc15         4 dih15  
 h    1 hc16        2 hcc16         3 dih16  
 h    1 hc17        2 hcc17         3 dih17  
 h    7 hc18        4 hcn18         3 dih18  
 h    7 hc19        4 hcn19         3 dih19  
 h    7 hc20        4 hcn20         3 dih20  
 
cc2         1.535005
cc3         1.531967
ccc3        110.971
nc4         1.464350
ncc4        111.374
dih4         55.765
cn5         1.464349
cnc5        111.667
dih5        -58.854
cc6         1.531966
ccn6        111.374
dih6         58.854
cn7         1.455555
cnc7        111.756
dih7        175.134
hc8         1.096148
hcn8        108.147
dih8        179.940
hc9         1.111997
hcn9        110.802
dih9         63.073
hc10        1.111998
hcn10       110.802
dih10       -63.073
hc11        1.096147
hcn11       108.147
dih11      -179.940
hc12        1.097551
hcc12       108.736
dih12       -64.914
hc13        1.096898
hcc13       109.334
dih13       178.195
hc14        1.096897
hcc14       109.334
dih14      -178.195
hc15        1.097552
hcc15       108.736
dih15        64.913
hc16        1.099756
hcc16       109.301
dih16        67.590
hc17        1.096624
hcc17       110.614
dih17      -175.215
hc18        1.094913
hcn18       109.804
dih18      -176.383
hc19        1.094912
hcn19       109.805
dih19       -57.655
hc20        1.108819
hcn20       112.963
dih20        62.981
 
 
 
 

