$RunGaus
%mem=16000Mb
%nproc=8
# mp2/cc-pVTZ

N_Me_piperidine_ax_single_point

0 1 
 c
 c   1 cc2     
 c    2 cc3         1 ccc3      
 n    3 nc4         2 ncc4          1 dih4   
 c    4 cn5         3 cnc5          2 dih5   
 c    5 cc6         4 ccn6          3 dih6   
 c    4 cn7         3 cnc7          2 dih7   
 h    3 hc8         4 hcn8          5 dih8   
 h    3 hc9         4 hcn9          5 dih9   
 h    5 hc10        4 hcn10         3 dih10  
 h    5 hc11        4 hcn11         3 dih11  
 h    2 hc12        3 hcc12         4 dih12  
 h    2 hc13        3 hcc13         4 dih13  
 h    6 hc14        5 hcc14         4 dih14  
 h    6 hc15        5 hcc15         4 dih15  
 h    1 hc16        2 hcc16         3 dih16  
 h    1 hc17        2 hcc17         3 dih17  
 h    7 hc18        4 hcn18         3 dih18  
 h    7 hc19        4 hcn19         3 dih19  
 h    7 hc20        4 hcn20         3 dih20  
 
cc2         1.538285
cc3         1.541454
ccc3        110.448
nc4         1.468310
ncc4        114.313
dih4         54.198
cn5         1.468321
cnc5        110.981
dih5        -54.020
cc6         1.541449
ccn6        114.313
dih6         54.019
cn7         1.459326
cnc7        113.969
dih7         76.269
hc8         1.096168
hcn8        108.360
dih8       -178.153
hc9         1.100046
hcn9        107.369
dih9         66.738
hc10        1.100044
hcn10       107.369
dih10       -66.739
hc11        1.096166
hcn11       108.359
dih11       178.152
hc12        1.098485
hcc12       109.888
dih12       -66.885
hc13        1.097657
hcc13       109.547
dih13       176.344
hc14        1.097658
hcc14       109.547
dih14      -176.345
hc15        1.098487
hcc15       109.888
dih15        66.886
hc16        1.100530
hcc16       109.008
dih16        67.246
hc17        1.096779
hcc17       110.739
dih17      -175.850
hc18        1.095396
hcn18       109.150
dih18        56.868
hc19        1.095396
hcn19       109.150
dih19       174.342
hc20        1.105053
hcn20       115.289
dih20       -64.395
 
 
 
 

