$RunGaus
%mem=16000Mb
%nproc=8
# mp2/cc-pVTZ

N_methylacetamide_Z_single_point

0 1 
 c
 c   1 cc2     
 n    2 nc3         1 ncc3      
 c    3 cn4         2 cnc4          1 dih4   
 o    2 oc5         3 ocn5          4 dih5   
 h    3 hn6         2 hnc6          1 dih6   
 h    1 hc7         2 hcc7          5 dih7   
 h    1 hc8         2 hcc8          5 dih8   
 h    1 hc9         2 hcc9          5 dih9   
 h    4 hc10        3 hcn10         2 dih10  
 h    4 hc11        3 hcn11         2 dih11  
 h    4 hc12        3 hcn12         2 dih12  
 
cc2         1.522143
nc3         1.366300
ncc3        115.489
cn4         1.456414
cnc4        121.613
dih4        179.980
oc5         1.228600
ocn5        121.689
dih5         -0.021
hn6         1.008551
hnc6        119.263
dih6          0.035
hc7         1.095765
hcc7        111.074
dih7       -119.930
hc8         1.089946
hcc8        108.580
dih8         -0.027
hc9         1.095768
hcc9        111.071
dih9        119.871
hc10        1.091807
hcn10       108.764
dih10       179.907
hc11        1.094487
hcn11       110.857
dih11       -60.018
hc12        1.094458
hcn12       110.842
dih12        59.842
 
 
 
 

