$RunGaus
%mem=16000Mb
%nproc=8
# mp2/cc-pVTZ

NAPA_anti_single_point

0 1 
 c
 c   1 cc2     
 c    2 cc3         1 ccc3      
 c    3 cc4         2 ccc4          1 dih4   
 c    4 cc5         3 ccc5          2 dih5   
 c    5 cc6         4 ccc6          3 dih6   
 c    4 cc7         5 ccc7          6 dih7   
 c    7 cc8         4 ccc8          5 dih8   
 c    8 cc9         7 ccc9          4 dih9   
 n    9 nc10        8 ncc10         7 dih10  
 n    8 nc11        9 ncc11        10 dih11  
 c   11 cn12        8 cnc12         9 dih12  
 o   12 oc13       11 ocn13         8 dih13  
 c   12 cc14       11 ccn14         8 dih14  
 o    9 oc15        8 occ15        11 dih15  
 h   14 hc16       12 hcc16        13 dih16  
 h   14 hc17       12 hcc17        13 dih17  
 h   14 hc18       12 hcc18        13 dih18  
 h    8 hc19       11 hcn19        12 dih19  
 h   10 hn20        9 hnc20         8 dih20  
 h   11 hn21       12 hnc21        14 dih21  
 h   10 hn22        9 hnc22         8 dih22  
 h    7 hc23        8 hcc23        11 dih23  
 h    7 hc24        8 hcc24        11 dih24  
 h    5 hc25        4 hcc25         7 dih25  
 h    3 hc26        4 hcc26         7 dih26  
 h    2 hc27        3 hcc27         4 dih27  
 h    6 hc28        5 hcc28         4 dih28  
 h    1 hc29        2 hcc29         3 dih29  
 
cc2         1.397578
cc3         1.396879
ccc3        120.003
cc4         1.403358
ccc4        120.949
dih4         -0.130
cc5         1.402730
ccc5        118.567
dih5          0.143
cc6         1.397562
ccc6        120.587
dih6         -0.077
cc7         1.517309
ccc7        121.328
dih7        179.771
cc8         1.538353
ccc8        113.495
dih8        -91.012
cc9         1.550604
ccc9        112.241
dih9         74.398
nc10        1.358513
ncc10       113.865
dih10      -156.737
nc11        1.467442
ncc11       108.838
dih11        80.807
cn12        1.363585
cnc12       122.612
dih12       -83.335
oc13        1.234927
ocn13       121.936
dih13         0.247
cc14        1.516051
ccn14       116.425
dih14      -179.355
oc15        1.227658
occ15       122.339
dih15       -98.041
hc16        1.093415
hcc16       113.645
dih16      -179.020
hc17        1.093649
hcc17       108.762
dih17        59.165
hc18        1.093560
hcc18       108.534
dih18       -57.478
hc19        1.093762
hcn19       106.305
dih19        33.763
hn20        1.010563
hnc20       117.813
dih20      -171.947
hn21        1.010668
hnc21       119.181
dih21         7.602
hn22        1.015309
hnc22       119.543
dih22       -12.498
hc23        1.095219
hcc23       108.549
dih23        73.350
hc24        1.096014
hcc24       107.375
dih24       -43.333
hc25        1.085621
hcc25       119.188
dih25         0.599
hc26        1.087996
hcc26       119.538
dih26         0.736
hc27        1.086434
hcc27       119.808
dih27      -179.790
hc28        1.086435
hcc28       119.590
dih28       179.951
hc29        1.086266
hcc29       120.195
dih29      -179.782
 
 
 
 

