$RunGaus
%mem=16000Mb
%nproc=8
# mp2/cc-pVTZ

NAPA_g-_single_point

0 1 
 c
 c   1 cc2     
 c    2 cc3         1 ccc3      
 c    3 cc4         2 ccc4          1 dih4   
 c    4 cc5         3 ccc5          2 dih5   
 c    5 cc6         4 ccc6          3 dih6   
 c    4 cc7         5 ccc7          6 dih7   
 c    7 cc8         4 ccc8          5 dih8   
 c    8 cc9         7 ccc9          4 dih9   
 n    9 nc10        8 ncc10         7 dih10  
 n    8 nc11        9 ncc11        10 dih11  
 c   11 cn12        8 cnc12         9 dih12  
 o   12 oc13       11 ocn13         8 dih13  
 c   12 cc14       11 ccn14         8 dih14  
 o    9 oc15        8 occ15        11 dih15  
 h   14 hc16       12 hcc16        13 dih16  
 h   14 hc17       12 hcc17        13 dih17  
 h   14 hc18       12 hcc18        13 dih18  
 h    8 hc19       11 hcn19        12 dih19  
 h   10 hn20        9 hnc20         8 dih20  
 h   11 hn21       12 hnc21        14 dih21  
 h   10 hn22        9 hnc22         8 dih22  
 h    7 hc23        8 hcc23        11 dih23  
 h    7 hc24        8 hcc24        11 dih24  
 h    5 hc25        4 hcc25         7 dih25  
 h    3 hc26        4 hcc26         7 dih26  
 h    2 hc27        3 hcc27         4 dih27  
 h    6 hc28        5 hcc28         4 dih28  
 h    1 hc29        2 hcc29         3 dih29  
 
cc2         1.395949
cc3         1.399062
ccc3        120.052
cc4         1.402049
ccc4        121.079
dih4         -0.047
cc5         1.404184
ccc5        118.221
dih5          0.440
cc6         1.395749
ccc6        120.939
dih6         -0.493
cc7         1.515224
ccc7        121.091
dih7        179.728
cc8         1.537272
ccc8        114.037
dih8        -66.003
cc9         1.553058
ccc9        110.622
dih9       -179.052
nc10        1.357895
ncc10       113.848
dih10      -164.383
nc11        1.466299
ncc11       110.596
dih11        72.292
cn12        1.360720
cnc12       123.003
dih12       -84.293
oc13        1.236684
ocn13       121.951
dih13         7.009
cc14        1.515561
ccn14       116.525
dih14      -173.235
oc15        1.227059
occ15       122.288
dih15      -108.443
hc16        1.093802
hcc16       108.465
dih16       -60.173
hc17        1.093233
hcc17       113.614
dih17       178.443
hc18        1.093381
hcc18       108.813
dih18        56.518
hc19        1.095782
hcn19       106.383
dih19        32.551
hn20        1.010163
hnc20       117.959
dih20      -174.186
hn21        1.010180
hnc21       118.742
dih21        -2.138
hn22        1.016932
hnc22       119.847
dih22       -10.135
hc23        1.095142
hcc23       107.121
dih23      -178.432
hc24        1.094610
hcc24       108.763
dih24        67.974
hc25        1.087533
hcc25       119.639
dih25        -0.528
hc26        1.087995
hcc26       119.414
dih26         1.225
hc27        1.086408
hcc27       119.773
dih27      -179.717
hc28        1.086348
hcc28       119.732
dih28       179.907
hc29        1.086056
hcc29       120.298
dih29      -179.885
 
 
 
 

