$RunGaus
%mem=16000Mb
%nproc=8
# mp2/cc-pVTZ

piperidine_eq_single_point

0 1 
 c
 c   1 cc2     
 c    2 cc3         1 ccc3      
 n    3 nc4         2 ncc4          1 dih4   
 c    4 cn5         3 cnc5          2 dih5   
 c    5 cc6         4 ccn6          3 dih6   
 h    4 hn7         3 hnc7          2 dih7   
 h    3 hc8         4 hcn8          5 dih8   
 h    3 hc9         4 hcn9          5 dih9   
 h    5 hc10        4 hcn10         3 dih10  
 h    5 hc11        4 hcn11         3 dih11  
 h    2 hc12        3 hcc12         4 dih12  
 h    2 hc13        3 hcc13         4 dih13  
 h    6 hc14        5 hcc14         4 dih14  
 h    6 hc15        5 hcc15         4 dih15  
 h    1 hc16        2 hcc16         3 dih16  
 h    1 hc17        2 hcc17         3 dih17  
 
cc2         1.537542
cc3         1.532925
ccc3        110.749
nc4         1.465763
ncc4        109.709
dih4         55.984
cn5         1.465760
cnc5        112.558
dih5        -61.475
cc6         1.533071
ccn6        109.722
dih6         61.441
hn7         1.015597
hnc7        110.494
dih7        174.490
hc8         1.095603
hcn8        108.480
dih8        177.770
hc9         1.109192
hcn9        112.041
dih9         59.456
hc10        1.109181
hcn10       112.045
dih10       -59.513
hc11        1.095608
hcn11       108.479
dih11      -177.823
hc12        1.097543
hcc12       108.619
dih12       -64.493
hc13        1.097044
hcc13       109.743
dih13       178.304
hc14        1.097011
hcc14       109.734
dih14      -178.241
hc15        1.097565
hcc15       108.623
dih15        64.555
hc16        1.100030
hcc16       109.125
dih16        67.731
hc17        1.096792
hcc17       110.492
dih17      -175.398
 
 
 
 

