$RunGaus
%mem=16000Mb
%nproc=8
# mp2/cc-pVTZ

propanediamine_tTTt_single_point

0 1 
 c
 c   1 cc2     
 c    2 cc3         1 ccc3      
 n    3 nc4         2 ncc4          1 dih4   
 n    1 nc5         2 ncc5          3 dih5   
 h    1 hc6         2 hcc6          3 dih6   
 h    1 hc7         2 hcc7          3 dih7   
 h    5 hn8         1 hnc8          2 dih8   
 h    5 hn9         1 hnc9          2 dih9   
 h    3 hc10        2 hcc10         1 dih10  
 h    3 hc11        2 hcc11         1 dih11  
 h    4 hn12        3 hnc12         2 dih12  
 h    4 hn13        3 hnc13         2 dih13  
 h    2 hc14        1 hcc14         5 dih14  
 h    2 hc15        1 hcc15         5 dih15  
 
cc2         1.538466
cc3         1.538447
ccc3        113.189
nc4         1.466267
ncc4        116.436
dih4       -180.000
nc5         1.466235
ncc5        116.436
dih5       -179.999
hc6         1.097553
hcc6        109.435
dih6         57.926
hc7         1.097553
hcc7        109.434
dih7        -57.927
hn8         1.016888
hnc8        111.029
dih8        -59.584
hn9         1.016887
hnc9        111.029
dih9         59.594
hc10        1.097553
hcc10       109.436
dih10        57.928
hc11        1.097553
hcc11       109.436
dih11       -57.927
hn12        1.016894
hnc12       111.025
dih12       -59.586
hn13        1.016894
hnc13       111.025
dih13        59.584
hc14        1.100504
hcc14       109.259
dih14       -58.009
hc15        1.100503
hcc15       109.258
dih15        58.011
 
 
 
 

