$RunGaus
%mem=16000Mb
%nproc=8
# mp2/cc-pVTZ

propanediamine_H_plus_TTg_single_point

1 1 
 c
 c   1 cc2     
 c    2 cc3         1 ccc3      
 n    3 nc4         2 ncc4          1 dih4   
 n    1 nc5         2 ncc5          3 dih5   
 h    1 hc6         2 hcc6          3 dih6   
 h    1 hc7         2 hcc7          3 dih7   
 h    5 hn8         1 hnc8          2 dih8   
 h    5 hn9         1 hnc9          2 dih9   
 h    3 hc10        2 hcc10         1 dih10  
 h    3 hc11        2 hcc11         1 dih11  
 h    4 hn12        3 hnc12         2 dih12  
 h    4 hn13        3 hnc13         2 dih13  
 h    4 hn14        3 hnc14         2 dih14  
 h    2 hc15        1 hcc15         5 dih15  
 h    2 hc16        1 hcc16         5 dih16  
 
cc2         1.543193
cc3         1.522830
ccc3        111.985
nc4         1.530774
ncc4        110.322
dih4       -178.743
nc5         1.456608
ncc5        109.063
dih5        177.566
hc6         1.095619
hcc6        108.893
dih6         59.760
hc7         1.102906
hcc7        109.375
dih7        -56.704
hn8         1.015738
hnc8        112.496
dih8         82.499
hn9         1.014480
hnc9        111.949
dih9       -155.940
hc10        1.092655
hcc10       112.920
dih10        62.933
hc11        1.092783
hcc11       112.532
dih11       -60.821
hn12        1.026233
hnc12       110.793
dih12        59.216
hn13        1.025929
hnc13       112.206
dih13       179.756
hn14        1.026107
hnc14       110.918
dih14       -59.633
hc15        1.098570
hcc15       108.945
dih15       -60.673
hc16        1.096773
hcc16       107.738
dih16        55.572
 
 
 
 

