$RunGaus
%mem=16000Mb
%nproc=8
# mp2/cc-pVTZ

propanediamine_gGGg_single_point

0 1 
 c
 c   1 cc2     
 c    2 cc3         1 ccc3      
 n    3 nc4         2 ncc4          1 dih4   
 n    1 nc5         2 ncc5          3 dih5   
 h    1 hc6         2 hcc6          3 dih6   
 h    1 hc7         2 hcc7          3 dih7   
 h    5 hn8         1 hnc8          2 dih8   
 h    5 hn9         1 hnc9          2 dih9   
 h    3 hc10        2 hcc10         1 dih10  
 h    3 hc11        2 hcc11         1 dih11  
 h    4 hn12        3 hnc12         2 dih12  
 h    4 hn13        3 hnc13         2 dih13  
 h    2 hc14        1 hcc14         5 dih14  
 h    2 hc15        1 hcc15         5 dih15  
 
cc2         1.533848
cc3         1.533997
ccc3        115.256
nc4         1.467418
ncc4        111.709
dih4        -74.658
nc5         1.473889
ncc5        112.216
dih5         62.399
hc6         1.097582
hcc6        109.035
dih6        -56.218
hc7         1.103373
hcc7        108.582
dih7       -172.142
hn8         1.017855
hnc8        110.602
dih8         64.551
hn9         1.016522
hnc9        110.822
dih9       -176.792
hc10        1.096946
hcc10       108.587
dih10       166.692
hc11        1.106270
hcc11       108.430
dih11        51.221
hn12        1.018153
hnc12       109.406
dih12        61.953
hn13        1.016207
hnc13       110.963
dih13      -178.132
hc14        1.098157
hcc14       107.362
dih14      -176.340
hc15        1.098777
hcc15       109.847
dih15       -60.638
 
 
 
 

