$RunGaus
%mem=16000Mb
%nproc=8
# mp2/cc-pVTZ

pyrrolidine_ax_single_point

0 1 
 c
 c   1 cc2     
 n    2 nc3         1 ncc3      
 c    3 cn4         2 cnc4          1 dih4   
 c    4 cc5         3 ccn5          2 dih5   
 h    3 hn6         4 hnc6          5 dih6   
 h    4 hc7         3 hcn7          2 dih7   
 h    4 hc8         3 hcn8          2 dih8   
 h    2 hc9         3 hcn9          4 dih9   
 h    2 hc10        3 hcn10         4 dih10  
 h    5 hc11        4 hcc11         3 dih11  
 h    5 hc12        4 hcc12         3 dih12  
 h    1 hc13        2 hcc13         3 dih13  
 h    1 hc14        2 hcc14         3 dih14  
 
cc2         1.554304
nc3         1.471459
ncc3        107.002
cn4         1.471472
cnc4        104.173
dih4        -35.761
cc5         1.554336
ccn5        107.005
dih5         35.746
hn6         1.018460
hnc6        109.226
dih6        -80.854
hc7         1.097675
hcn7        108.016
dih7        -82.830
hc8         1.093963
hcn8        110.572
dih8        159.876
hc9         1.093963
hcn9        110.573
dih9       -159.891
hc10        1.097679
hcn10       108.016
dih10        82.814
hc11        1.095006
hcc11       111.836
dih11      -143.420
hc12        1.095514
hcc12       110.608
dih12        97.327
hc13        1.095518
hcc13       110.605
dih13       -97.285
hc14        1.095006
hcc14       111.839
dih14       143.460
 
 
 
 

