# opt uff

butaclahol-1c

0 1
 C                 -2.70312245   -0.17290816   -1.82336735
 C                 -2.92512245    0.80809184   -0.86436735
 C                 -1.87712245    1.35109184   -0.10736735
 C                 -1.41912245   -0.68390816   -1.95636735
 C                 -0.36012245   -0.22590816   -1.16336735
 C                 -0.55812245    0.89509184   -0.32536735
 C                 -2.32912245    2.40909184    0.88463265
 C                 -1.34012245    2.92809184    1.92863265
 C                 -0.28012245    3.71009184    1.19863265
 C                  0.64987755    1.50309184    0.37563265
 C                  0.65887755    3.03109184    0.40663265
 C                 -0.28412245    5.10809184    1.26763265
 C                  0.65187755    5.86609184    0.56763265
 C                  1.58787755    3.81609184   -0.29436735
 C                  1.59187755    5.20909184   -0.22236735
 C                  0.98987755   -0.91090816   -1.32436735
 C                  1.96587755    0.92009184   -0.17236735
 N                  1.95587755   -0.52390816   -0.30836735
 C                  1.01687755   -2.44990816   -1.49636735
 C                  0.96287755   -3.36290816   -0.24236735
 C                  1.89487755   -2.73190816    0.81563265
 C                  1.74787755   -1.21190816    0.95463265
 C                 -0.45112245   -3.80190816    0.28563265
 C                 -1.18912245   -2.72290816    1.10363265
 C                 -1.38412245   -4.23190816   -0.87136735
 C                 -0.34112245   -5.03690816    1.22263265
 O                  1.60587755   -4.56690816   -0.64736735
 H                  1.79487755   -5.06790816    0.12663265
 H                 -3.53212245   -0.55790816   -2.44136735
 H                 -3.95612245    1.17609184   -0.72936735
 H                 -1.26212245   -1.46190816   -2.71836735
 H                 -3.18712245    1.97609184    1.45263265
 H                 -2.73312245    3.27409184    0.30563265
 H                 -0.92412245    2.11009184    2.55763265
 H                 -1.87812245    3.59409184    2.64463265
 H                  0.60887755    1.18109184    1.43963265
 H                 -1.04312245    5.63309184    1.87163265
 H                  0.64087755    6.96709184    0.62663265
 H                  2.36487755    3.36909184   -0.93136735
 H                  2.33787755    5.79409184   -0.78736735
 H                  2.82287755    1.22509184    0.47663265
 H                  2.18187755    1.32609184   -1.18736735
 H                  2.01987755   -2.63790816   -1.95236735
 H                  0.32887755   -2.81090816   -2.28936735
 H                  1.76987755   -3.22090816    1.80763265
 H                  2.95587755   -2.91790816    0.52163265
 H                  0.74887755   -0.97490816    1.37663265
 H                  2.49987755   -0.85190816    1.69763265
 H                 -2.21912245   -3.04790816    1.37563265
 H                 -0.67412245   -2.50290816    2.06563265
 H                 -1.30712245   -1.77790816    0.53563265
 H                 -2.32312245   -4.69690816   -0.49236735
 H                 -1.70812245   -3.36990816   -1.49136735
 H                 -0.90212245   -4.97890816   -1.54136735
 H                 -1.33112245   -5.31390816    1.65463265
 H                  0.02187755   -5.94590816    0.69163265
 H                  0.33687755   -4.85790816    2.08563265
 H                  1.34687755   -0.49690816   -2.30136735

 1 2 1.5 4 1.5 29 1.0
 2 3 1.5 30 1.0
 3 6 1.5 7 1.0
 4 5 1.5 31 1.0
 5 6 1.5 16 1.0
 6 10 1.0
 7 8 1.0 32 1.0 33 1.0
 8 9 1.0 34 1.0 35 1.0
 9 11 1.5 12 1.5
 10 11 1.0 17 1.0 36 1.0
 11 14 1.5
 12 13 1.5 37 1.0
 13 15 1.5 38 1.0
 14 15 1.5 39 1.0
 15 40 1.0
 16 18 1.0 19 1.0 58 1.0
 17 18 1.0 41 1.0 42 1.0
 18 22 1.0
 19 20 1.0 43 1.0 44 1.0
 20 21 1.0 23 1.0 27 1.0
 21 22 1.0 45 1.0 46 1.0
 22 47 1.0 48 1.0
 23 24 1.0 25 1.0 26 1.0
 24 49 1.0 50 1.0 51 1.0
 25 52 1.0 53 1.0 54 1.0
 26 55 1.0 56 1.0 57 1.0
 27 28 1.0
 28
 29
 30
 31
 32
 33
 34
 35
 36
 37
 38
 39
 40
 41
 42
 43
 44
 45
 46
 47
 48
 49
 50
 51
 52
 53
 54
 55
 56
 57
 58

