# opt uff

octoclothepin-3g

0 1
 C                 -0.16542308    3.38885714    2.12292308
 C                 -0.78042308    2.13985714    2.20292308
 C                  0.66557692    3.67085714    1.03892308
 C                  0.86857692    2.70885714    0.04892308
 C                  0.26057692    1.44785714    0.12092308
 C                 -0.57942308    1.17685714    1.20892308
 S                 -1.31542308   -0.38114286    1.40192308
 C                 -2.24642308   -0.91114286    0.03192308
 C                 -1.96842308   -0.56114286   -1.30207692
 C                 -3.32242308   -1.76114286    0.31892308
 C                 -4.14342308   -2.27114286   -0.68607692
 C                 -2.81442308   -1.07814286   -2.29607692
 C                 -3.88642308   -1.92314286   -2.00907692
 C                  0.47357692    0.43985714   -1.00007692
 C                 -0.85142308    0.34785714   -1.78307692
 N                  1.01457692   -0.83914286   -0.54007692
 C                  1.20457692   -1.79714286   -1.62007692
 C                  1.73557692   -3.13814286   -1.08907692
 N                  2.99057692   -2.96014286   -0.37807692
 C                  2.27657692   -0.66614286    0.16892308
 C                  2.80357692   -2.00714286    0.70392308
 C                  3.50757692   -4.22814286    0.11392308
 Cl                 1.43257692    5.21185714    0.92092308
 H                 -0.33842308    4.13585714    2.91492308
 H                 -1.42542308    1.92385714    3.07292308
 H                  1.51857692    2.95185714   -0.80907692
 H                 -3.54642308   -2.05314286    1.35992308
 H                 -4.98542308   -2.93814286   -0.43807692
 H                 -2.64542308   -0.81514286   -3.35307692
 H                 -4.52642308   -2.31014286   -2.81907692
 H                  1.22357692    0.88385714   -1.70007692
 H                 -0.58542308    0.04385714   -2.82307692
 H                 -1.28842308    1.36785714   -1.89807692
 H                  1.90957692   -1.38814286   -2.38407692
 H                  0.23557692   -2.00314286   -2.13107692
 H                  1.88857692   -3.83314286   -1.95007692
 H                  0.97057692   -3.59914286   -0.41807692
 H                  2.14157692    0.01885714    1.03992308
 H                  3.04057692   -0.20514286   -0.50207692
 H                  2.08857692   -2.41114286    1.46092308
 H                  3.77757692   -1.83314286    1.22192308
 H                  2.80457692   -4.70614286    0.83492308
 H                  3.68257692   -4.93114286   -0.73307692
 H                  4.48857692   -4.07714286    0.62092308

 1 2 1.5 3 1.5 24 1.0
 2 6 1.5 25 1.0
 3 4 1.5 23 1.0
 4 5 1.5 26 1.0
 5 6 1.5 14 1.0
 6 7 1.0
 7 8 1.0
 8 9 1.5 10 1.5
 9 12 1.5 15 1.0
 10 11 1.5 27 1.0
 11 13 1.5 28 1.0
 12 13 1.5 29 1.0
 13 30 1.0
 14 15 1.0 16 1.0 31 1.0
 15 32 1.0 33 1.0
 16 17 1.0 20 1.0
 17 18 1.0 34 1.0 35 1.0
 18 19 1.0 36 1.0 37 1.0
 19 21 1.0 22 1.0
 20 21 1.0 38 1.0 39 1.0
 21 40 1.0 41 1.0
 22 42 1.0 43 1.0 44 1.0
 23
 24
 25
 26
 27
 28
 29
 30
 31
 32
 33
 34
 35
 36
 37
 38
 39
 40
 41
 42
 43
 44

