# opt uff

octoclothepin-3b

0 1
 C                 -0.47147802    2.32046703   -2.60621429
 C                 -0.71247802    2.56746703   -1.25621429
 C                 -0.11247802    1.03246703   -3.00021429
 C                  0.02352198    0.02546703   -2.04321429
 C                 -0.18247802    0.25546703   -0.67221429
 C                 -0.56747802    1.55546703   -0.30221429
 S                 -1.08747802    1.89946703    1.32478571
 C                 -2.49247802    0.87346703    1.43478571
 C                 -2.29947802   -0.51253297    1.39178571
 C                 -3.77547802    1.42446703    1.40378571
 C                 -4.89047802    0.58546703    1.36278571
 C                 -3.42747802   -1.33953297    1.35078571
 C                 -4.71447802   -0.79753297    1.33178571
 C                  0.07152198   -0.90653297    0.29678571
 C                 -0.90447802   -1.08953297    1.48878571
 N                  1.46252198   -0.89753297    0.79578571
 C                  1.83352198   -2.15753297    1.43578571
 C                  3.26052198   -2.11853297    2.00678571
 N                  4.23052198   -1.82353297    0.96578571
 C                  2.45452198   -0.60153297   -0.23121429
 C                  3.88252198   -0.56153297    0.33678571
 C                  5.58652198   -1.80453297    1.48978571
 Cl                 0.17152198    0.69046703   -4.66721429
 H                 -0.59047802    3.13146703   -3.34521429
 H                 -1.04747802    3.57646703   -0.95921429
 H                  0.32152198   -0.97953297   -2.38621429
 H                 -3.92047802    2.51746703    1.38878571
 H                 -5.90647802    1.01546703    1.33778571
 H                 -3.31047802   -2.43653297    1.34478571
 H                 -5.59247802   -1.46353297    1.29578571
 H                 -0.06947802   -1.82353297   -0.32421429
 H                 -0.46147802   -0.64753297    2.41178571
 H                 -0.99747802   -2.17453297    1.72878571
 H                  1.75052198   -3.00053297    0.70678571
 H                  1.15652198   -2.38853297    2.28878571
 H                  3.49552198   -3.10953297    2.46478571
 H                  3.31552198   -1.35353297    2.81878571
 H                  2.26852198    0.40546703   -0.67321429
 H                  2.40452198   -1.35953297   -1.04921429
 H                  3.96852198    0.27646703    1.07178571
 H                  4.59752198   -0.34953297   -0.49421429
 H                  5.71452198   -1.01853297    2.27078571
 H                  5.84652198   -2.79253297    1.93378571
 H                  6.31752198   -1.61253297    0.66978571

 1 2 1.5 3 1.5 24 1.0
 2 6 1.5 25 1.0
 3 4 1.5 23 1.0
 4 5 1.5 26 1.0
 5 6 1.5 14 1.0
 6 7 1.0
 7 8 1.0
 8 9 1.5 10 1.5
 9 12 1.5 15 1.0
 10 11 1.5 27 1.0
 11 13 1.5 28 1.0
 12 13 1.5 29 1.0
 13 30 1.0
 14 15 1.0 16 1.0 31 1.0
 15 32 1.0 33 1.0
 16 17 1.0 20 1.0
 17 18 1.0 34 1.0 35 1.0
 18 19 1.0 36 1.0 37 1.0
 19 21 1.0 22 1.0
 20 21 1.0 38 1.0 39 1.0
 21 40 1.0 41 1.0
 22 42 1.0 43 1.0 44 1.0
 23
 24
 25
 26
 27
 28
 29
 30
 31
 32
 33
 34
 35
 36
 37
 38
 39
 40
 41
 42
 43
 44

