# opt uff

octoclothepin-3f

0 1
 C                  3.60345055   -0.28612637    0.31423077
 C                  3.01645055    0.96787363    0.47023077
 C                  2.79045055   -1.37012637   -0.01176923
 C                  1.41845055   -1.18712637   -0.19876923
 C                  0.81145055    0.07287363   -0.10676923
 C                  1.64245055    1.13787363    0.27723077
 S                  0.95145055    2.69987363    0.60023077
 C                 -0.16354945    2.56187363    1.93223077
 C                 -1.11954945    1.53487363    2.04423077
 C                 -0.05454945    3.53387363    2.93523077
 C                 -0.87754945    3.51787363    4.06023077
 C                 -1.93154945    1.53787363    3.19023077
 C                 -1.82554945    2.50587363    4.18923077
 C                 -0.68554945    0.33287363   -0.29976923
 C                 -1.39354945    0.39987363    1.06423077
 N                 -1.39254945   -0.47012637   -1.31076923
 C                 -0.67554945   -0.56612637   -2.57376923
 C                 -1.55654945   -1.19812637   -3.66376923
 N                 -2.02454945   -2.51312637   -3.25476923
 C                 -1.89554945   -1.77312637   -0.89876923
 C                 -2.76154945   -2.40012637   -2.00576923
 C                 -2.83154945   -3.13412637   -4.29276923
 Cl                 3.48345055   -2.94312637   -0.16376923
 H                  4.68745055   -0.41212637    0.47823077
 H                  3.65345055    1.81687363    0.77023077
 H                  0.82645055   -2.08212637   -0.41876923
 H                  0.69445055    4.34087363    2.85723077
 H                 -0.77754945    4.29087363    4.84023077
 H                 -2.69054945    0.74787363    3.32023077
 H                 -2.48354945    2.47087363    5.07323077
 H                 -0.79254945    1.35287363   -0.73476923
 H                 -1.19554945   -0.55412637    1.60623077
 H                 -2.48954945    0.45687363    0.86123077
 H                  0.24645055   -1.18312637   -2.47276923
 H                 -0.36154945    0.45087363   -2.91176923
 H                 -0.96154945   -1.28612637   -4.60376923
 H                 -2.42254945   -0.52512637   -3.87876923
 H                 -2.53454945   -1.68212637    0.00923077
 H                 -1.07854945   -2.48212637   -0.65076923
 H                 -3.68054945   -1.78212637   -2.15276923
 H                 -3.09354945   -3.41412637   -1.67476923
 H                 -3.74354945   -2.53312637   -4.51976923
 H                 -2.23954945   -3.24912637   -5.22976923
 H                 -3.14854945   -4.15612637   -3.98076923

 1 2 1.5 3 1.5 24 1.0
 2 6 1.5 25 1.0
 3 4 1.5 23 1.0
 4 5 1.5 26 1.0
 5 6 1.5 14 1.0
 6 7 1.0
 7 8 1.0
 8 9 1.5 10 1.5
 9 12 1.5 15 1.0
 10 11 1.5 27 1.0
 11 13 1.5 28 1.0
 12 13 1.5 29 1.0
 13 30 1.0
 14 15 1.0 16 1.0 31 1.0
 15 32 1.0 33 1.0
 16 17 1.0 20 1.0
 17 18 1.0 34 1.0 35 1.0
 18 19 1.0 36 1.0 37 1.0
 19 21 1.0 22 1.0
 20 21 1.0 38 1.0 39 1.0
 21 40 1.0 41 1.0
 22 42 1.0 43 1.0 44 1.0
 23
 24
 25
 26
 27
 28
 29
 30
 31
 32
 33
 34
 35
 36
 37
 38
 39
 40
 41
 42
 43
 44

