# opt uff

octoclothepin-3i

0 1
 C                 -0.43828571    2.74100000    2.88619780
 C                 -1.50528571    2.27800000    2.11919780
 C                  0.85271429    2.60600000    2.38519780
 C                  1.04671429    2.00900000    1.14019780
 C                 -0.01328571    1.52900000    0.35019780
 C                 -1.31328571    1.67600000    0.86819780
 S                 -2.76228571    1.20000000    0.03419780
 C                 -2.61228571   -0.31900000   -0.78780220
 C                 -1.64428571   -0.46800000   -1.78580220
 C                 -3.50628571   -1.35400000   -0.50080220
 C                 -3.44828571   -2.55100000   -1.21580220
 C                 -1.62328571   -1.66000000   -2.52180220
 C                 -2.51128571   -2.69800000   -2.23780220
 C                  0.40071429    0.87400000   -0.96980220
 C                 -0.66228571    0.64300000   -2.06680220
 N                  1.33071429   -0.23200000   -0.70680220
 C                  0.75871429   -1.33800000    0.04419780
 C                  1.85371429   -2.34100000    0.44319780
 N                  2.54371429   -2.85100000   -0.73180220
 C                  2.00871429   -0.73900000   -1.88880220
 C                  3.10271429   -1.74500000   -1.49280220
 C                  3.56871429   -3.81600000   -0.36680220
 Cl                 2.20071429    3.16800000    3.30319780
 H                 -0.62528571    3.20900000    3.86819780
 H                 -2.52228571    2.40600000    2.53019780
 H                  2.08071429    1.90900000    0.76919780
 H                 -4.27628571   -1.23400000    0.28019780
 H                 -4.15528571   -3.36700000   -0.98980220
 H                 -0.89028571   -1.79900000   -3.33280220
 H                 -2.47228571   -3.63500000   -2.81980220
 H                  1.02471429    1.68300000   -1.42480220
 H                 -0.16128571    0.44100000   -3.04180220
 H                 -1.21728571    1.58900000   -2.26680220
 H                 -0.00728571   -1.88000000   -0.55280220
 H                  0.26071429   -0.96400000    0.96919780
 H                  1.38371429   -3.18800000    0.99919780
 H                  2.57571429   -1.84500000    1.13619780
 H                  2.47971429    0.10400000   -2.44980220
 H                  1.29271429   -1.24700000   -2.57380220
 H                  3.88971429   -1.22100000   -0.89880220
 H                  3.58771429   -2.13500000   -2.42080220
 H                  4.35271429   -3.35800000    0.28019780
 H                  3.11671429   -4.67700000    0.17719780
 H                  4.05871429   -4.22800000   -1.27980220

 1 2 1.5 3 1.5 24 1.0
 2 6 1.5 25 1.0
 3 4 1.5 23 1.0
 4 5 1.5 26 1.0
 5 6 1.5 14 1.0
 6 7 1.0
 7 8 1.0
 8 9 1.5 10 1.5
 9 12 1.5 15 1.0
 10 11 1.5 27 1.0
 11 13 1.5 28 1.0
 12 13 1.5 29 1.0
 13 30 1.0
 14 15 1.0 16 1.0 31 1.0
 15 32 1.0 33 1.0
 16 17 1.0 20 1.0
 17 18 1.0 34 1.0 35 1.0
 18 19 1.0 36 1.0 37 1.0
 19 21 1.0 22 1.0
 20 21 1.0 38 1.0 39 1.0
 21 40 1.0 41 1.0
 22 42 1.0 43 1.0 44 1.0
 23
 24
 25
 26
 27
 28
 29
 30
 31
 32
 33
 34
 35
 36
 37
 38
 39
 40
 41
 42
 43
 44

