# opt uff

tefludazine-2e

0 1
 C                  1.92227103   -0.23887383   -3.34488318
 C                  2.55227103    0.17812617   -2.16388318
 C                  1.80527103    0.21312617   -0.97888318
 C                  0.48427103   -0.23787383   -0.96088318
 C                 -0.08572897   -0.72787383   -2.13288318
 C                  0.61127103   -0.72087383   -3.33788318
 C                 -1.48772897   -1.21687383   -1.90288318
 C                 -0.50472897   -0.31187383    0.19011682
 C                 -1.41072897   -1.43987383   -0.37288318
 C                 -2.56172897   -0.21887383   -2.27788318
 C                 -2.29272897    1.13412617   -2.51888318
 C                 -3.31672897    2.02412617   -2.84888318
 C                 -4.63672897    1.58212617   -2.93788318
 C                 -3.89272897   -0.64587383   -2.35688318
 C                 -4.92072897    0.23912617   -2.68688318
 F                 -5.60672897    2.42512617   -3.24888318
 C                  3.95327103    0.73812617   -2.19988318
 F                  4.86327103   -0.28487383   -1.94688318
 F                  4.28027103    1.28312617   -3.43788318
 F                  4.16027103    1.72112617   -1.23688318
 N                  0.11427103   -0.55587383    1.49211682
 C                  0.45427103    0.70212617    2.15211682
 C                  1.20227103    0.45612617    3.47011682
 N                  0.38427103   -0.31687383    4.39411682
 C                 -0.00672897   -1.56287383    3.75411682
 C                 -0.71872897   -1.31887383    2.41111682
 C                  1.08327103   -0.52287383    5.66011682
 C                  0.23927103   -1.23687383    6.72811682
 O                  0.90027103   -1.15887383    7.97211682
 H                  2.46827103   -0.21587383   -4.30188318
 H                  2.28027103    0.58012617   -0.05888318
 H                  0.13227103   -1.08387383   -4.26188318
 H                 -1.65472897   -2.17787383   -2.44588318
 H                 -1.11272897    0.62412617    0.20911682
 H                 -2.41872897   -1.47887383    0.10211682
 H                 -0.91272897   -2.42687383   -0.21088318
 H                 -1.26572897    1.52612617   -2.44888318
 H                 -3.08172897    3.08512617   -3.03688318
 H                 -4.13872897   -1.70187383   -2.15388318
 H                 -5.96072897   -0.12287383   -2.74488318
 H                 -0.46872897    1.29212617    2.36711682
 H                  1.08527103    1.34412617    1.49711682
 H                  1.45527103    1.44312617    3.92711682
 H                  2.16327103   -0.07287383    3.25811682
 H                 -0.71072897   -2.12387383    4.41111682
 H                  0.88927103   -2.20787383    3.58911682
 H                 -1.68872897   -0.79287383    2.58211682
 H                 -0.94972897   -2.32387383    1.98811682
 H                  2.02927103   -1.09187383    5.49611682
 H                  1.36527103    0.47512617    6.07411682
 H                 -0.75872897   -0.74987383    6.84511682
 H                  0.09527103   -2.31987383    6.50411682
 H                  0.36127103   -1.59987383    8.60611682

 1 2 1.5 6 1.5 30 1.0
 2 3 1.5 17 1.0
 3 4 1.5 31 1.0
 4 5 1.5 8 1.0
 5 6 1.5 7 1.0
 6 32 1.0
 7 9 1.0 10 1.0 33 1.0
 8 9 1.0 21 1.0 34 1.0
 9 35 1.0 36 1.0
 10 11 1.5 14 1.5
 11 12 1.5 37 1.0
 12 13 1.5 38 1.0
 13 15 1.5 16 1.0
 14 15 1.5 39 1.0
 15 40 1.0
 16
 17 18 1.0 19 1.0 20 1.0
 18
 19
 20
 21 22 1.0 26 1.0
 22 23 1.0 41 1.0 42 1.0
 23 24 1.0 43 1.0 44 1.0
 24 25 1.0 27 1.0
 25 26 1.0 45 1.0 46 1.0
 26 47 1.0 48 1.0
 27 28 1.0 49 1.0 50 1.0
 28 29 1.0 51 1.0 52 1.0
 29 53 1.0
 30
 31
 32
 33
 34
 35
 36
 37
 38
 39
 40
 41
 42
 43
 44
 45
 46
 47
 48
 49
 50
 51
 52
 53

