# opt uff

tefludazine-2f

0 1
 C                  1.96070561    0.33713084   -2.70581308
 C                  2.19770561    0.97713084   -1.48181308
 C                  1.25570561    0.82613084   -0.45581308
 C                  0.17870561   -0.04786916   -0.60381308
 C                 -0.02029439   -0.68786916   -1.82381308
 C                  0.86070561   -0.50286916   -2.88681308
 C                 -1.28629439   -1.49786916   -1.84781308
 C                 -0.94029439   -0.36186916    0.36518692
 C                 -1.63629439   -1.55586916   -0.34481308
 C                 -2.37329439   -0.83286916   -2.66481308
 C                 -2.55929439    0.55513084   -2.66381308
 C                 -3.57829439    1.14613084   -3.41281308
 C                 -4.44429439    0.35813084   -4.17181308
 C                 -3.26129439   -1.61286916   -3.41381308
 C                 -4.28229439   -1.02786916   -4.16481308
 F                 -5.41229439    0.91713084   -4.87981308
 C                  3.33470561    1.95913084   -1.33881308
 F                  4.45070561    1.29813084   -0.83381308
 F                  3.70770561    2.52913084   -2.55181308
 F                  3.03870561    2.99613084   -0.45781308
 N                 -0.54929439   -0.72486916    1.72818692
 C                  0.67970561   -1.50086916    1.82118692
 C                  0.92270561   -1.96086916    3.26718692
 N                  1.01270561   -0.82486916    4.17518692
 C                 -0.20529439   -0.03286916    4.07418692
 C                 -0.47029439    0.41613084    2.62618692
 C                  1.28570561   -1.27086916    5.53818692
 C                  1.51170561   -0.12386916    6.53618692
 O                  2.01570561   -0.64986916    7.74518692
 H                  2.64170561    0.50113084   -3.55781308
 H                  1.37070561    1.40113084    0.47418692
 H                  0.67070561   -0.98886916   -3.85781308
 H                 -1.06129439   -2.51486916   -2.24881308
 H                 -1.65329439    0.49613084    0.36718692
 H                 -2.73629439   -1.58086916   -0.15881308
 H                 -1.24329439   -2.51986916    0.05418692
 H                 -1.90029439    1.20713084   -2.06881308
 H                 -3.70329439    2.24213084   -3.40181308
 H                 -3.16129439   -2.71086916   -3.41581308
 H                 -4.96729439   -1.66286916   -4.75081308
 H                  1.55970561   -0.89886916    1.49418692
 H                  0.63270561   -2.39886916    1.16318692
 H                  1.87470561   -2.54386916    3.29818692
 H                  0.09970561   -2.64786916    3.58118692
 H                 -0.11929439    0.88513084    4.70018692
 H                 -1.07829439   -0.61786916    4.45018692
 H                  0.33170561    1.12113084    2.31018692
 H                 -1.43429439    0.97913084    2.60718692
 H                  0.46070561   -1.92486916    5.90918692
 H                  2.21670561   -1.88686916    5.52818692
 H                  2.26170561    0.60713084    6.14818692
 H                  0.56870561    0.41813084    6.78518692
 H                  2.15270561    0.07413084    8.33118692

 1 2 1.5 6 1.5 30 1.0
 2 3 1.5 17 1.0
 3 4 1.5 31 1.0
 4 5 1.5 8 1.0
 5 6 1.5 7 1.0
 6 32 1.0
 7 9 1.0 10 1.0 33 1.0
 8 9 1.0 21 1.0 34 1.0
 9 35 1.0 36 1.0
 10 11 1.5 14 1.5
 11 12 1.5 37 1.0
 12 13 1.5 38 1.0
 13 15 1.5 16 1.0
 14 15 1.5 39 1.0
 15 40 1.0
 16
 17 18 1.0 19 1.0 20 1.0
 18
 19
 20
 21 22 1.0 26 1.0
 22 23 1.0 41 1.0 42 1.0
 23 24 1.0 43 1.0 44 1.0
 24 25 1.0 27 1.0
 25 26 1.0 45 1.0 46 1.0
 26 47 1.0 48 1.0
 27 28 1.0 49 1.0 50 1.0
 28 29 1.0 51 1.0 52 1.0
 29 53 1.0
 30
 31
 32
 33
 34
 35
 36
 37
 38
 39
 40
 41
 42
 43
 44
 45
 46
 47
 48
 49
 50
 51
 52
 53

