# opt uff

dioxalane-C

1 1
 O                  0.56372165    0.08173196    1.32549485
 C                  0.67672165   -0.67726804    0.13849485
 C                  1.44172165    0.30173196   -0.74650515
 C                  1.72672165    0.89273196    1.43649485
 O                  2.36372165    0.86073196    0.16449485
 C                 -0.71227835   -1.21726804   -0.30150515
 N                 -1.78227835   -0.37026804   -0.86250515
 C                  1.34872165    2.32573196    1.83049485
 H                  0.82672165    1.15273196   -1.11650515
 H                  1.98172165   -0.17826804   -1.59650515
 H                  2.41872165    0.44373196    2.19549485
 C                 -3.03327835   -1.14926804   -0.84450515
 C                 -1.99527835    0.84073196   -0.07150515
 C                 -1.52227835   -0.01926804   -2.26250515
 H                  0.67972165    2.79173196    1.07149485
 H                  0.81772165    2.33873196    2.81049485
 H                  2.25672165    2.96373196    1.92349485
 H                 -0.53227835   -2.05226804   -1.01750515
 H                 -1.10827835   -1.70426804    0.62149485
 H                 -3.88327835   -0.57826804   -1.28450515
 H                 -2.93527835   -2.09626804   -1.42550515
 H                 -3.33527835   -1.42226804    0.19349485
 H                 -2.87027835    1.42273196   -0.44350515
 H                 -2.18527835    0.59673196    0.99949485
 H                 -1.12427835    1.52973196   -0.12350515
 H                 -2.36427835    0.56773196   -2.69750515
 H                 -0.61427835    0.60173196   -2.39550515
 H                 -1.39127835   -0.92826804   -2.89450515
 C                  1.56972165   -1.90926804    0.44349485
 H                  1.09472165   -2.57926804    1.19649485
 H                  2.57272165   -1.64026804    0.84449485
 H                  1.74872165   -2.50926804   -0.47850515

 1 2 1.0 4 1.0
 2 3 1.0 6 1.0 29 1.0
 3 5 1.0 9 1.0 10 1.0
 4 5 1.0 8 1.0 11 1.0
 5
 6 7 1.0 18 1.0 19 1.0
 7 12 1.0 13 1.0 14 1.0
 8 15 1.0 16 1.0 17 1.0
 9
 10
 11
 12 20 1.0 21 1.0 22 1.0
 13 23 1.0 24 1.0 25 1.0
 14 26 1.0 27 1.0 28 1.0
 15
 16
 17
 18
 19
 20
 21
 22
 23
 24
 25
 26
 27
 28
 29 30 1.0 31 1.0 32 1.0
 30
 31
 32

