# opt uff

muscarine-B

1 1
 O                 -0.21903093    0.54020619   -0.89322680
 C                  0.07596907    0.19120619    0.45077320
 C                  1.15996907    1.18120619    0.90477320
 C                  0.18196907    1.88420619   -1.12122680
 C                  0.64896907    2.45020619    0.22477320
 O                  1.67096907    3.40320619    0.06177320
 C                 -0.96203093    2.68120619   -1.75922680
 C                  0.53696907   -1.27579381    0.56577320
 N                 -0.46003093   -2.34679381    0.39677320
 C                  0.22396907   -3.63879381    0.53377320
 C                 -1.50003093   -2.26179381    1.42577320
 C                 -1.08703093   -2.29079381   -0.92422680
 H                  1.85796907    3.77120619    0.90777320
 H                 -1.86003093    2.69420619   -1.09922680
 H                 -1.26203093    2.23720619   -2.73522680
 H                 -0.48403093   -4.49379381    0.42377320
 H                  1.01596907   -3.76579381   -0.24122680
 H                  0.70996907   -3.74179381    1.53177320
 H                 -2.21703093   -3.11279381    1.34877320
 H                 -1.06203093   -2.28379381    2.45077320
 H                 -2.10503093   -1.33179381    1.33377320
 H                 -1.76803093   -3.15879381   -1.08822680
 H                 -1.71303093   -1.37979381   -1.04922680
 H                 -0.32303093   -2.30479381   -1.73722680
 H                  2.15796907    0.88720619    0.50177320
 H                  1.22096907    1.27720619    2.01377320
 H                  1.04796907    1.84820619   -1.83022680
 H                 -0.19003093    2.91320619    0.80077320
 H                  1.36596907   -1.41879381   -0.16722680
 H                  1.00296907   -1.37879381    1.57477320
 H                 -0.65403093    3.73620619   -1.94122680
 H                 -0.80903093    0.36120619    1.06977320

 1 2 1.0 4 1.0
 2 3 1.0 8 1.0 32 1.0
 3 5 1.0 25 1.0 26 1.0
 4 5 1.0 7 1.0 27 1.0
 5 6 1.0 28 1.0
 6 13 1.0
 7 14 1.0 15 1.0 31 1.0
 8 9 1.0 29 1.0 30 1.0
 9 10 1.0 11 1.0 12 1.0
 10 16 1.0 17 1.0 18 1.0
 11 19 1.0 20 1.0 21 1.0
 12 22 1.0 23 1.0 24 1.0
 13
 14
 15
 16
 17
 18
 19
 20
 21
 22
 23
 24
 25
 26
 27
 28
 29
 30
 31
 32

