# opt dreiding

Et-P-Me2-a

0 1
 P                 -0.24714000   -0.49218000   -0.42724000
 C                 -0.28314000    1.32182000   -0.49124000
 C                  0.40686000    1.99182000    0.70376000
 C                  1.41586000   -1.19018000   -0.57624000
 C                 -1.20714000   -1.19018000    0.93776000
 H                  0.20786000    1.66082000   -1.43324000
 H                 -1.34414000    1.66082000   -0.53724000
 H                  0.35786000    3.10282000    0.61976000
 H                 -0.07914000    1.70882000    1.66676000
 H                  1.48286000    1.70882000    0.76476000
 H                  1.37286000   -2.30018000   -0.64924000
 H                  1.92786000   -0.80318000   -1.48524000
 H                  2.03586000   -0.92618000    0.30976000
 H                 -1.24914000   -2.30018000    0.86376000
 H                 -0.75014000   -0.92618000    1.91776000
 H                 -2.25014000   -0.80318000    0.92676000

 1 2 1.0 4 1.0 5 1.0
 2 3 1.0 6 1.0 7 1.0
 3 8 1.0 9 1.0 10 1.0
 4 11 1.0 12 1.0 13 1.0
 5 14 1.0 15 1.0 16 1.0
 6
 7
 8
 9
 10
 11
 12
 13
 14
 15
 16

