# opt dreiding

Et-P-Me2-g

0 1
 P                 -0.23602000   -0.48002000    0.02658000
 C                 -0.30002000    1.32898000   -0.10842000
 C                  0.38098000    1.88198000   -1.36742000
 C                  1.43398000   -1.17002000   -0.07842000
 C                 -1.20002000   -1.13102000    1.41358000
 H                 -1.36802000    1.64998000   -0.10442000
 H                  0.17798000    1.77598000    0.79258000
 H                  0.28598000    2.99198000   -1.41342000
 H                  1.46898000    1.64198000   -1.38342000
 H                 -0.07902000    1.46798000   -2.29442000
 H                  1.40098000   -2.28302000   -0.07142000
 H                  1.94198000   -0.84802000   -1.01342000
 H                  2.05198000   -0.83702000    0.78558000
 H                 -1.22102000   -2.24402000    1.39258000
 H                 -0.75902000   -0.81102000    2.38358000
 H                 -2.25002000   -0.76402000    1.37158000

 1 2 1.0 4 1.0 5 1.0
 2 3 1.0 6 1.0 7 1.0
 3 8 1.0 9 1.0 10 1.0
 4 11 1.0 12 1.0 13 1.0
 5 14 1.0 15 1.0 16 1.0
 6
 7
 8
 9
 10
 11
 12
 13
 14
 15
 16

