# opt dreiding

ethylphosphine-a

0 1
 P                  0.37547059   -1.20614706    0.00000000
 C                  0.42947059    0.94285294    0.00000000
 C                 -1.00152941    1.48585294    0.00000000
 H                 -0.03052941   -1.93914706    1.16700000
 H                 -0.02952941   -1.93914706   -1.16700000
 H                  0.98847059    1.25585294    0.91200000
 H                  0.98847059    1.25585294   -0.91200000
 H                 -1.00152941    2.60085294    0.00000000
 H                 -1.55752941    1.14285294   -0.90200000
 H                 -1.55752941    1.14285294    0.90200000

 1
 2 3 1.0 6 1.0 7 1.0
 3 8 1.0 9 1.0 10 1.0
 4
 5
 6
 7
 8
 9
 10

