# opt dreiding

trimethylphosphate-C3

0 1
 P                  0.00028378    0.05687838    0.00190541
 O                  0.01328378    1.65687838    0.04990541
 O                  1.58628378   -0.52412162   -0.06009459
 O                 -0.76071622   -0.54912162    1.38390541
 O                 -0.83771622   -0.46512162   -1.37009459
 C                 -0.09571622   -0.17412162    2.56790541
 C                  2.27428378   -0.07812162   -1.20709459
 C                 -2.18071622   -0.03912162   -1.37009459
 H                 -0.67271622   -0.62412162    3.40690541
 H                  0.93828378   -0.59212162    2.58790541
 H                 -0.10471622    0.93387838    2.68990541
 H                  3.29528378   -0.51712162   -1.14909459
 H                  1.78028378   -0.45512162   -2.13309459
 H                  2.36828378    1.03287838   -1.20209459
 H                 -2.63471622   -0.43612162   -2.30609459
 H                 -2.73071622   -0.47012162   -0.50109459
 H                 -2.23971622    1.07487838   -1.39509459

 1 2 1.5 3 1.0 4 1.0 5 1.0
 2
 3 7 1.0
 4 6 1.0
 5 8 1.0
 6 9 1.0 10 1.0 11 1.0
 7 12 1.0 13 1.0 14 1.0
 8 15 1.0 16 1.0 17 1.0
 9
 10
 11
 12
 13
 14
 15
 16
 17

