# opt dreiding

Trimethylphosphate-C1

0 1
 P                  0.08031081    0.28122973    0.14617568
 O                  0.07631081    1.88122973    0.19017568
 O                  1.67831081   -0.26677027    0.11117568
 O                 -0.67368919   -0.29477027    1.54517568
 O                 -0.74268919   -0.25777027   -1.22682432
 C                 -0.66568919   -1.70277027    1.61017568
 C                  2.36231081    0.15522973   -1.04682432
 C                 -2.07768919    0.19222973   -1.26382432
 H                 -1.19068919   -1.97577027    2.55317568
 H                 -1.22868919   -2.14277027    0.75317568
 H                  0.38031081   -2.08677027    1.66617568
 H                  3.39331081   -0.25677027   -0.96882432
 H                  1.88231081   -0.26577027   -1.96082432
 H                  2.42931081    1.26822973   -1.08082432
 H                 -2.52368919   -0.22977027   -2.19182432
 H                 -2.65068919   -0.19677027   -0.38882432
 H                 -2.11568919    1.30422973   -1.32882432

 1 2 1.5 3 1.0 4 1.0 5 1.0
 2
 3 7 1.0
 4 6 1.0
 5 8 1.0
 6 9 1.0 10 1.0 11 1.0
 7 12 1.0 13 1.0 14 1.0
 8 15 1.0 16 1.0 17 1.0
 9
 10
 11
 12
 13
 14
 15
 16
 17

