$RunGaus
%mem=8000Mb
%nproc=4
# mp2/cc-pVTZ

1-2-difluoroethane-g_single_point

0 1 
 c
 f   1 fc2     
 c    1 cc3         2 ccf3      
 f    3 fc4         1 fcc4          2 dih4   
 h    1 hc5         3 hcc5          4 dih5   
 h    1 hc6         3 hcc6          4 dih6   
 h    3 hc7         1 hcc7          2 dih7   
 h    3 hc8         1 hcc8          2 dih8   
 
fc2         1.400276
cc3         1.507219
ccf3        110.710
fc4         1.400275
fcc4        110.711
dih4        -72.649
hc5         1.094563
hcc5        111.019
dih5         46.892
hc6         1.096548
hcc6        109.783
dih6        168.662
hc7         1.094565
hcc7        111.019
dih7         46.894
hc8         1.096545
hcc8        109.783
dih8        168.662
 
 
 

