$RunGaus
%mem=8000Mb
%nproc=4
# mp2/cc-pVTZ

fluoropropane-a_single_point

0 1 
 c
 f   1 fc2     
 c    1 cc3         2 ccf3      
 c    3 cc4         1 ccc4          2 dih4   
 h    1 hc5         3 hcc5          4 dih5   
 h    1 hc6         3 hcc6          4 dih6   
 h    3 hc7         1 hcc7          2 dih7   
 h    3 hc8         1 hcc8          2 dih8   
 h    4 hc9         3 hcc9          1 dih9   
 h    4 hc10        3 hcc10         1 dih10  
 h    4 hc11        3 hcc11         1 dih11  
 
fc2         1.409355
cc3         1.518521
ccf3        110.155
cc4         1.534507
ccc4        111.825
dih4       -179.995
hc5         1.096135
hcc5        111.812
dih5        -61.344
hc6         1.096121
hcc6        111.810
dih6         61.361
hc7         1.096392
hcc7        108.706
dih7        -58.047
hc8         1.096398
hcc8        108.709
dih8         58.055
hc9         1.094130
hcc9        110.774
dih9       -179.984
hc10        1.096141
hcc10       111.497
dih10       -60.225
hc11        1.096136
hcc11       111.498
dih11        60.254
 
 
 

